Version,26.1;

Building,
  FMU Export Schedule Initial Value Exact Fixture,
  0.0,
  Suburbs,
  0.04,
  0.4,
  FullExterior,
  25,
  6;

Timestep,4;

GlobalGeometryRules,
  UpperLeftCorner,
  CounterClockWise,
  World;

RunPeriod,
  FMU Export Schedule Initial Value Run Period,
  1,
  1,
  2032,
  1,
  1,
  2032,
  Thursday,
  No,
  No,
  No,
  No,
  No,
  No;

ScheduleTypeLimits,
  Any Number;

ExternalInterface:FunctionalMockupUnitExport:To:Schedule,
  FMU Export Initial Value,
  Any Number,
  ProbeInput,
  0.875;

Output:Variable,
  FMU EXPORT INITIAL VALUE,
  Schedule Value,
  Timestep;
