LOCATION,Calendar Special Day Weekday Rules Fixture,CO,USA,Synthetic,999999,39.74,-105.18,-7.0,1829.0
DESIGN CONDITIONS,0
TYPICAL/EXTREME PERIODS,0
GROUND TEMPERATURES,0
HOLIDAYS/DAYLIGHT SAVINGS,Yes,0,0,0
COMMENTS 1,Deterministic nine-day leap-year weather fixture for Nth and last-weekday special-day conformance
COMMENTS 2,Weather values are constant because only Site Day Type Index is claimed
DATA PERIODS,1,1,Data,Sunday,2/22,3/1
2032,2,22,1,60,?9?9?9?9E0?9?9?9?9?9?9?9?9?9?9?9?9?9?9?9*9*9?9*9*9,10.0,5.0,50,80600,0,0,250,0,0,0,0,0,0,0,180,2.0,5,5,20.0,7777,9,999999999,0,0.0000,0,0,0.000,0.0,0.0
2032,2,22,2,60,?9?9?9?9E0?9?9?9?9?9?9?9?9?9?9?9?9?9?9?9*9*9?9*9*9,10.0,5.0,50,80600,0,0,250,0,0,0,0,0,0,0,180,2.0,5,5,20.0,7777,9,999999999,0,0.0000,0,0,0.000,0.0,0.0
2032,2,22,3,60,?9?9?9?9E0?9?9?9?9?9?9?9?9?9?9?9?9?9?9?9*9*9?9*9*9,10.0,5.0,50,80600,0,0,250,0,0,0,0,0,0,0,180,2.0,5,5,20.0,7777,9,999999999,0,0.0000,0,0,0.000,0.0,0.0
2032,2,22,4,60,?9?9?9?9E0?9?9?9?9?9?9?9?9?9?9?9?9?9?9?9*9*9?9*9*9,10.0,5.0,50,80600,0,0,250,0,0,0,0,0,0,0,180,2.0,5,5,20.0,7777,9,999999999,0,0.0000,0,0,0.000,0.0,0.0
2032,2,22,5,60,?9?9?9?9E0?9?9?9?9?9?9?9?9?9?9?9?9?9?9?9*9*9?9*9*9,10.0,5.0,50,80600,0,0,250,0,0,0,0,0,0,0,180,2.0,5,5,20.0,7777,9,999999999,0,0.0000,0,0,0.000,0.0,0.0
2032,2,22,6,60,?9?9?9?9E0?9?9?9?9?9?9?9?9?9?9?9?9?9?9?9*9*9?9*9*9,10.0,5.0,50,80600,0,0,250,0,0,0,0,0,0,0,180,2.0,5,5,20.0,7777,9,999999999,0,0.0000,0,0,0.000,0.0,0.0
2032,2,22,7,60,?9?9?9?9E0?9?9?9?9?9?9?9?9?9?9?9?9?9?9?9*9*9?9*9*9,10.0,5.0,50,80600,0,0,250,0,0,0,0,0,0,0,180,2.0,5,5,20.0,7777,9,999999999,0,0.0000,0,0,0.000,0.0,0.0
2032,2,22,8,60,?9?9?9?9E0?9?9?9?9?9?9?9?9?9?9?9?9?9?9?9*9*9?9*9*9,10.0,5.0,50,80600,0,0,250,0,0,0,0,0,0,0,180,2.0,5,5,20.0,7777,9,999999999,0,0.0000,0,0,0.000,0.0,0.0
2032,2,22,9,60,?9?9?9?9E0?9?9?9?9?9?9?9?9?9?9?9?9?9?9?9*9*9?9*9*9,10.0,5.0,50,80600,0,0,250,0,0,0,0,0,0,0,180,2.0,5,5,20.0,7777,9,999999999,0,0.0000,0,0,0.000,0.0,0.0
2032,2,22,10,60,?9?9?9?9E0?9?9?9?9?9?9?9?9?9?9?9?9?9?9?9*9*9?9*9*9,10.0,5.0,50,80600,0,0,250,0,0,0,0,0,0,0,180,2.0,5,5,20.0,7777,9,999999999,0,0.0000,0,0,0.000,0.0,0.0
2032,2,22,11,60,?9?9?9?9E0?9?9?9?9?9?9?9?9?9?9?9?9?9?9?9*9*9?9*9*9,10.0,5.0,50,80600,0,0,250,0,0,0,0,0,0,0,180,2.0,5,5,20.0,7777,9,999999999,0,0.0000,0,0,0.000,0.0,0.0
2032,2,22,12,60,?9?9?9?9E0?9?9?9?9?9?9?9?9?9?9?9?9?9?9?9*9*9?9*9*9,10.0,5.0,50,80600,0,0,250,0,0,0,0,0,0,0,180,2.0,5,5,20.0,7777,9,999999999,0,0.0000,0,0,0.000,0.0,0.0
2032,2,22,13,60,?9?9?9?9E0?9?9?9?9?9?9?9?9?9?9?9?9?9?9?9*9*9?9*9*9,10.0,5.0,50,80600,0,0,250,0,0,0,0,0,0,0,180,2.0,5,5,20.0,7777,9,999999999,0,0.0000,0,0,0.000,0.0,0.0
2032,2,22,14,60,?9?9?9?9E0?9?9?9?9?9?9?9?9?9?9?9?9?9?9?9*9*9?9*9*9,10.0,5.0,50,80600,0,0,250,0,0,0,0,0,0,0,180,2.0,5,5,20.0,7777,9,999999999,0,0.0000,0,0,0.000,0.0,0.0
2032,2,22,15,60,?9?9?9?9E0?9?9?9?9?9?9?9?9?9?9?9?9?9?9?9*9*9?9*9*9,10.0,5.0,50,80600,0,0,250,0,0,0,0,0,0,0,180,2.0,5,5,20.0,7777,9,999999999,0,0.0000,0,0,0.000,0.0,0.0
2032,2,22,16,60,?9?9?9?9E0?9?9?9?9?9?9?9?9?9?9?9?9?9?9?9*9*9?9*9*9,10.0,5.0,50,80600,0,0,250,0,0,0,0,0,0,0,180,2.0,5,5,20.0,7777,9,999999999,0,0.0000,0,0,0.000,0.0,0.0
2032,2,22,17,60,?9?9?9?9E0?9?9?9?9?9?9?9?9?9?9?9?9?9?9?9*9*9?9*9*9,10.0,5.0,50,80600,0,0,250,0,0,0,0,0,0,0,180,2.0,5,5,20.0,7777,9,999999999,0,0.0000,0,0,0.000,0.0,0.0
2032,2,22,18,60,?9?9?9?9E0?9?9?9?9?9?9?9?9?9?9?9?9?9?9?9*9*9?9*9*9,10.0,5.0,50,80600,0,0,250,0,0,0,0,0,0,0,180,2.0,5,5,20.0,7777,9,999999999,0,0.0000,0,0,0.000,0.0,0.0
2032,2,22,19,60,?9?9?9?9E0?9?9?9?9?9?9?9?9?9?9?9?9?9?9?9*9*9?9*9*9,10.0,5.0,50,80600,0,0,250,0,0,0,0,0,0,0,180,2.0,5,5,20.0,7777,9,999999999,0,0.0000,0,0,0.000,0.0,0.0
2032,2,22,20,60,?9?9?9?9E0?9?9?9?9?9?9?9?9?9?9?9?9?9?9?9*9*9?9*9*9,10.0,5.0,50,80600,0,0,250,0,0,0,0,0,0,0,180,2.0,5,5,20.0,7777,9,999999999,0,0.0000,0,0,0.000,0.0,0.0
2032,2,22,21,60,?9?9?9?9E0?9?9?9?9?9?9?9?9?9?9?9?9?9?9?9*9*9?9*9*9,10.0,5.0,50,80600,0,0,250,0,0,0,0,0,0,0,180,2.0,5,5,20.0,7777,9,999999999,0,0.0000,0,0,0.000,0.0,0.0
2032,2,22,22,60,?9?9?9?9E0?9?9?9?9?9?9?9?9?9?9?9?9?9?9?9*9*9?9*9*9,10.0,5.0,50,80600,0,0,250,0,0,0,0,0,0,0,180,2.0,5,5,20.0,7777,9,999999999,0,0.0000,0,0,0.000,0.0,0.0
2032,2,22,23,60,?9?9?9?9E0?9?9?9?9?9?9?9?9?9?9?9?9?9?9?9*9*9?9*9*9,10.0,5.0,50,80600,0,0,250,0,0,0,0,0,0,0,180,2.0,5,5,20.0,7777,9,999999999,0,0.0000,0,0,0.000,0.0,0.0
2032,2,22,24,60,?9?9?9?9E0?9?9?9?9?9?9?9?9?9?9?9?9?9?9?9*9*9?9*9*9,10.0,5.0,50,80600,0,0,250,0,0,0,0,0,0,0,180,2.0,5,5,20.0,7777,9,999999999,0,0.0000,0,0,0.000,0.0,0.0
2032,2,23,1,60,?9?9?9?9E0?9?9?9?9?9?9?9?9?9?9?9?9?9?9?9*9*9?9*9*9,10.0,5.0,50,80600,0,0,250,0,0,0,0,0,0,0,180,2.0,5,5,20.0,7777,9,999999999,0,0.0000,0,0,0.000,0.0,0.0
2032,2,23,2,60,?9?9?9?9E0?9?9?9?9?9?9?9?9?9?9?9?9?9?9?9*9*9?9*9*9,10.0,5.0,50,80600,0,0,250,0,0,0,0,0,0,0,180,2.0,5,5,20.0,7777,9,999999999,0,0.0000,0,0,0.000,0.0,0.0
2032,2,23,3,60,?9?9?9?9E0?9?9?9?9?9?9?9?9?9?9?9?9?9?9?9*9*9?9*9*9,10.0,5.0,50,80600,0,0,250,0,0,0,0,0,0,0,180,2.0,5,5,20.0,7777,9,999999999,0,0.0000,0,0,0.000,0.0,0.0
2032,2,23,4,60,?9?9?9?9E0?9?9?9?9?9?9?9?9?9?9?9?9?9?9?9*9*9?9*9*9,10.0,5.0,50,80600,0,0,250,0,0,0,0,0,0,0,180,2.0,5,5,20.0,7777,9,999999999,0,0.0000,0,0,0.000,0.0,0.0
2032,2,23,5,60,?9?9?9?9E0?9?9?9?9?9?9?9?9?9?9?9?9?9?9?9*9*9?9*9*9,10.0,5.0,50,80600,0,0,250,0,0,0,0,0,0,0,180,2.0,5,5,20.0,7777,9,999999999,0,0.0000,0,0,0.000,0.0,0.0
2032,2,23,6,60,?9?9?9?9E0?9?9?9?9?9?9?9?9?9?9?9?9?9?9?9*9*9?9*9*9,10.0,5.0,50,80600,0,0,250,0,0,0,0,0,0,0,180,2.0,5,5,20.0,7777,9,999999999,0,0.0000,0,0,0.000,0.0,0.0
2032,2,23,7,60,?9?9?9?9E0?9?9?9?9?9?9?9?9?9?9?9?9?9?9?9*9*9?9*9*9,10.0,5.0,50,80600,0,0,250,0,0,0,0,0,0,0,180,2.0,5,5,20.0,7777,9,999999999,0,0.0000,0,0,0.000,0.0,0.0
2032,2,23,8,60,?9?9?9?9E0?9?9?9?9?9?9?9?9?9?9?9?9?9?9?9*9*9?9*9*9,10.0,5.0,50,80600,0,0,250,0,0,0,0,0,0,0,180,2.0,5,5,20.0,7777,9,999999999,0,0.0000,0,0,0.000,0.0,0.0
2032,2,23,9,60,?9?9?9?9E0?9?9?9?9?9?9?9?9?9?9?9?9?9?9?9*9*9?9*9*9,10.0,5.0,50,80600,0,0,250,0,0,0,0,0,0,0,180,2.0,5,5,20.0,7777,9,999999999,0,0.0000,0,0,0.000,0.0,0.0
2032,2,23,10,60,?9?9?9?9E0?9?9?9?9?9?9?9?9?9?9?9?9?9?9?9*9*9?9*9*9,10.0,5.0,50,80600,0,0,250,0,0,0,0,0,0,0,180,2.0,5,5,20.0,7777,9,999999999,0,0.0000,0,0,0.000,0.0,0.0
2032,2,23,11,60,?9?9?9?9E0?9?9?9?9?9?9?9?9?9?9?9?9?9?9?9*9*9?9*9*9,10.0,5.0,50,80600,0,0,250,0,0,0,0,0,0,0,180,2.0,5,5,20.0,7777,9,999999999,0,0.0000,0,0,0.000,0.0,0.0
2032,2,23,12,60,?9?9?9?9E0?9?9?9?9?9?9?9?9?9?9?9?9?9?9?9*9*9?9*9*9,10.0,5.0,50,80600,0,0,250,0,0,0,0,0,0,0,180,2.0,5,5,20.0,7777,9,999999999,0,0.0000,0,0,0.000,0.0,0.0
2032,2,23,13,60,?9?9?9?9E0?9?9?9?9?9?9?9?9?9?9?9?9?9?9?9*9*9?9*9*9,10.0,5.0,50,80600,0,0,250,0,0,0,0,0,0,0,180,2.0,5,5,20.0,7777,9,999999999,0,0.0000,0,0,0.000,0.0,0.0
2032,2,23,14,60,?9?9?9?9E0?9?9?9?9?9?9?9?9?9?9?9?9?9?9?9*9*9?9*9*9,10.0,5.0,50,80600,0,0,250,0,0,0,0,0,0,0,180,2.0,5,5,20.0,7777,9,999999999,0,0.0000,0,0,0.000,0.0,0.0
2032,2,23,15,60,?9?9?9?9E0?9?9?9?9?9?9?9?9?9?9?9?9?9?9?9*9*9?9*9*9,10.0,5.0,50,80600,0,0,250,0,0,0,0,0,0,0,180,2.0,5,5,20.0,7777,9,999999999,0,0.0000,0,0,0.000,0.0,0.0
2032,2,23,16,60,?9?9?9?9E0?9?9?9?9?9?9?9?9?9?9?9?9?9?9?9*9*9?9*9*9,10.0,5.0,50,80600,0,0,250,0,0,0,0,0,0,0,180,2.0,5,5,20.0,7777,9,999999999,0,0.0000,0,0,0.000,0.0,0.0
2032,2,23,17,60,?9?9?9?9E0?9?9?9?9?9?9?9?9?9?9?9?9?9?9?9*9*9?9*9*9,10.0,5.0,50,80600,0,0,250,0,0,0,0,0,0,0,180,2.0,5,5,20.0,7777,9,999999999,0,0.0000,0,0,0.000,0.0,0.0
2032,2,23,18,60,?9?9?9?9E0?9?9?9?9?9?9?9?9?9?9?9?9?9?9?9*9*9?9*9*9,10.0,5.0,50,80600,0,0,250,0,0,0,0,0,0,0,180,2.0,5,5,20.0,7777,9,999999999,0,0.0000,0,0,0.000,0.0,0.0
2032,2,23,19,60,?9?9?9?9E0?9?9?9?9?9?9?9?9?9?9?9?9?9?9?9*9*9?9*9*9,10.0,5.0,50,80600,0,0,250,0,0,0,0,0,0,0,180,2.0,5,5,20.0,7777,9,999999999,0,0.0000,0,0,0.000,0.0,0.0
2032,2,23,20,60,?9?9?9?9E0?9?9?9?9?9?9?9?9?9?9?9?9?9?9?9*9*9?9*9*9,10.0,5.0,50,80600,0,0,250,0,0,0,0,0,0,0,180,2.0,5,5,20.0,7777,9,999999999,0,0.0000,0,0,0.000,0.0,0.0
2032,2,23,21,60,?9?9?9?9E0?9?9?9?9?9?9?9?9?9?9?9?9?9?9?9*9*9?9*9*9,10.0,5.0,50,80600,0,0,250,0,0,0,0,0,0,0,180,2.0,5,5,20.0,7777,9,999999999,0,0.0000,0,0,0.000,0.0,0.0
2032,2,23,22,60,?9?9?9?9E0?9?9?9?9?9?9?9?9?9?9?9?9?9?9?9*9*9?9*9*9,10.0,5.0,50,80600,0,0,250,0,0,0,0,0,0,0,180,2.0,5,5,20.0,7777,9,999999999,0,0.0000,0,0,0.000,0.0,0.0
2032,2,23,23,60,?9?9?9?9E0?9?9?9?9?9?9?9?9?9?9?9?9?9?9?9*9*9?9*9*9,10.0,5.0,50,80600,0,0,250,0,0,0,0,0,0,0,180,2.0,5,5,20.0,7777,9,999999999,0,0.0000,0,0,0.000,0.0,0.0
2032,2,23,24,60,?9?9?9?9E0?9?9?9?9?9?9?9?9?9?9?9?9?9?9?9*9*9?9*9*9,10.0,5.0,50,80600,0,0,250,0,0,0,0,0,0,0,180,2.0,5,5,20.0,7777,9,999999999,0,0.0000,0,0,0.000,0.0,0.0
2032,2,24,1,60,?9?9?9?9E0?9?9?9?9?9?9?9?9?9?9?9?9?9?9?9*9*9?9*9*9,10.0,5.0,50,80600,0,0,250,0,0,0,0,0,0,0,180,2.0,5,5,20.0,7777,9,999999999,0,0.0000,0,0,0.000,0.0,0.0
2032,2,24,2,60,?9?9?9?9E0?9?9?9?9?9?9?9?9?9?9?9?9?9?9?9*9*9?9*9*9,10.0,5.0,50,80600,0,0,250,0,0,0,0,0,0,0,180,2.0,5,5,20.0,7777,9,999999999,0,0.0000,0,0,0.000,0.0,0.0
2032,2,24,3,60,?9?9?9?9E0?9?9?9?9?9?9?9?9?9?9?9?9?9?9?9*9*9?9*9*9,10.0,5.0,50,80600,0,0,250,0,0,0,0,0,0,0,180,2.0,5,5,20.0,7777,9,999999999,0,0.0000,0,0,0.000,0.0,0.0
2032,2,24,4,60,?9?9?9?9E0?9?9?9?9?9?9?9?9?9?9?9?9?9?9?9*9*9?9*9*9,10.0,5.0,50,80600,0,0,250,0,0,0,0,0,0,0,180,2.0,5,5,20.0,7777,9,999999999,0,0.0000,0,0,0.000,0.0,0.0
2032,2,24,5,60,?9?9?9?9E0?9?9?9?9?9?9?9?9?9?9?9?9?9?9?9*9*9?9*9*9,10.0,5.0,50,80600,0,0,250,0,0,0,0,0,0,0,180,2.0,5,5,20.0,7777,9,999999999,0,0.0000,0,0,0.000,0.0,0.0
2032,2,24,6,60,?9?9?9?9E0?9?9?9?9?9?9?9?9?9?9?9?9?9?9?9*9*9?9*9*9,10.0,5.0,50,80600,0,0,250,0,0,0,0,0,0,0,180,2.0,5,5,20.0,7777,9,999999999,0,0.0000,0,0,0.000,0.0,0.0
2032,2,24,7,60,?9?9?9?9E0?9?9?9?9?9?9?9?9?9?9?9?9?9?9?9*9*9?9*9*9,10.0,5.0,50,80600,0,0,250,0,0,0,0,0,0,0,180,2.0,5,5,20.0,7777,9,999999999,0,0.0000,0,0,0.000,0.0,0.0
2032,2,24,8,60,?9?9?9?9E0?9?9?9?9?9?9?9?9?9?9?9?9?9?9?9*9*9?9*9*9,10.0,5.0,50,80600,0,0,250,0,0,0,0,0,0,0,180,2.0,5,5,20.0,7777,9,999999999,0,0.0000,0,0,0.000,0.0,0.0
2032,2,24,9,60,?9?9?9?9E0?9?9?9?9?9?9?9?9?9?9?9?9?9?9?9*9*9?9*9*9,10.0,5.0,50,80600,0,0,250,0,0,0,0,0,0,0,180,2.0,5,5,20.0,7777,9,999999999,0,0.0000,0,0,0.000,0.0,0.0
2032,2,24,10,60,?9?9?9?9E0?9?9?9?9?9?9?9?9?9?9?9?9?9?9?9*9*9?9*9*9,10.0,5.0,50,80600,0,0,250,0,0,0,0,0,0,0,180,2.0,5,5,20.0,7777,9,999999999,0,0.0000,0,0,0.000,0.0,0.0
2032,2,24,11,60,?9?9?9?9E0?9?9?9?9?9?9?9?9?9?9?9?9?9?9?9*9*9?9*9*9,10.0,5.0,50,80600,0,0,250,0,0,0,0,0,0,0,180,2.0,5,5,20.0,7777,9,999999999,0,0.0000,0,0,0.000,0.0,0.0
2032,2,24,12,60,?9?9?9?9E0?9?9?9?9?9?9?9?9?9?9?9?9?9?9?9*9*9?9*9*9,10.0,5.0,50,80600,0,0,250,0,0,0,0,0,0,0,180,2.0,5,5,20.0,7777,9,999999999,0,0.0000,0,0,0.000,0.0,0.0
2032,2,24,13,60,?9?9?9?9E0?9?9?9?9?9?9?9?9?9?9?9?9?9?9?9*9*9?9*9*9,10.0,5.0,50,80600,0,0,250,0,0,0,0,0,0,0,180,2.0,5,5,20.0,7777,9,999999999,0,0.0000,0,0,0.000,0.0,0.0
2032,2,24,14,60,?9?9?9?9E0?9?9?9?9?9?9?9?9?9?9?9?9?9?9?9*9*9?9*9*9,10.0,5.0,50,80600,0,0,250,0,0,0,0,0,0,0,180,2.0,5,5,20.0,7777,9,999999999,0,0.0000,0,0,0.000,0.0,0.0
2032,2,24,15,60,?9?9?9?9E0?9?9?9?9?9?9?9?9?9?9?9?9?9?9?9*9*9?9*9*9,10.0,5.0,50,80600,0,0,250,0,0,0,0,0,0,0,180,2.0,5,5,20.0,7777,9,999999999,0,0.0000,0,0,0.000,0.0,0.0
2032,2,24,16,60,?9?9?9?9E0?9?9?9?9?9?9?9?9?9?9?9?9?9?9?9*9*9?9*9*9,10.0,5.0,50,80600,0,0,250,0,0,0,0,0,0,0,180,2.0,5,5,20.0,7777,9,999999999,0,0.0000,0,0,0.000,0.0,0.0
2032,2,24,17,60,?9?9?9?9E0?9?9?9?9?9?9?9?9?9?9?9?9?9?9?9*9*9?9*9*9,10.0,5.0,50,80600,0,0,250,0,0,0,0,0,0,0,180,2.0,5,5,20.0,7777,9,999999999,0,0.0000,0,0,0.000,0.0,0.0
2032,2,24,18,60,?9?9?9?9E0?9?9?9?9?9?9?9?9?9?9?9?9?9?9?9*9*9?9*9*9,10.0,5.0,50,80600,0,0,250,0,0,0,0,0,0,0,180,2.0,5,5,20.0,7777,9,999999999,0,0.0000,0,0,0.000,0.0,0.0
2032,2,24,19,60,?9?9?9?9E0?9?9?9?9?9?9?9?9?9?9?9?9?9?9?9*9*9?9*9*9,10.0,5.0,50,80600,0,0,250,0,0,0,0,0,0,0,180,2.0,5,5,20.0,7777,9,999999999,0,0.0000,0,0,0.000,0.0,0.0
2032,2,24,20,60,?9?9?9?9E0?9?9?9?9?9?9?9?9?9?9?9?9?9?9?9*9*9?9*9*9,10.0,5.0,50,80600,0,0,250,0,0,0,0,0,0,0,180,2.0,5,5,20.0,7777,9,999999999,0,0.0000,0,0,0.000,0.0,0.0
2032,2,24,21,60,?9?9?9?9E0?9?9?9?9?9?9?9?9?9?9?9?9?9?9?9*9*9?9*9*9,10.0,5.0,50,80600,0,0,250,0,0,0,0,0,0,0,180,2.0,5,5,20.0,7777,9,999999999,0,0.0000,0,0,0.000,0.0,0.0
2032,2,24,22,60,?9?9?9?9E0?9?9?9?9?9?9?9?9?9?9?9?9?9?9?9*9*9?9*9*9,10.0,5.0,50,80600,0,0,250,0,0,0,0,0,0,0,180,2.0,5,5,20.0,7777,9,999999999,0,0.0000,0,0,0.000,0.0,0.0
2032,2,24,23,60,?9?9?9?9E0?9?9?9?9?9?9?9?9?9?9?9?9?9?9?9*9*9?9*9*9,10.0,5.0,50,80600,0,0,250,0,0,0,0,0,0,0,180,2.0,5,5,20.0,7777,9,999999999,0,0.0000,0,0,0.000,0.0,0.0
2032,2,24,24,60,?9?9?9?9E0?9?9?9?9?9?9?9?9?9?9?9?9?9?9?9*9*9?9*9*9,10.0,5.0,50,80600,0,0,250,0,0,0,0,0,0,0,180,2.0,5,5,20.0,7777,9,999999999,0,0.0000,0,0,0.000,0.0,0.0
2032,2,25,1,60,?9?9?9?9E0?9?9?9?9?9?9?9?9?9?9?9?9?9?9?9*9*9?9*9*9,10.0,5.0,50,80600,0,0,250,0,0,0,0,0,0,0,180,2.0,5,5,20.0,7777,9,999999999,0,0.0000,0,0,0.000,0.0,0.0
2032,2,25,2,60,?9?9?9?9E0?9?9?9?9?9?9?9?9?9?9?9?9?9?9?9*9*9?9*9*9,10.0,5.0,50,80600,0,0,250,0,0,0,0,0,0,0,180,2.0,5,5,20.0,7777,9,999999999,0,0.0000,0,0,0.000,0.0,0.0
2032,2,25,3,60,?9?9?9?9E0?9?9?9?9?9?9?9?9?9?9?9?9?9?9?9*9*9?9*9*9,10.0,5.0,50,80600,0,0,250,0,0,0,0,0,0,0,180,2.0,5,5,20.0,7777,9,999999999,0,0.0000,0,0,0.000,0.0,0.0
2032,2,25,4,60,?9?9?9?9E0?9?9?9?9?9?9?9?9?9?9?9?9?9?9?9*9*9?9*9*9,10.0,5.0,50,80600,0,0,250,0,0,0,0,0,0,0,180,2.0,5,5,20.0,7777,9,999999999,0,0.0000,0,0,0.000,0.0,0.0
2032,2,25,5,60,?9?9?9?9E0?9?9?9?9?9?9?9?9?9?9?9?9?9?9?9*9*9?9*9*9,10.0,5.0,50,80600,0,0,250,0,0,0,0,0,0,0,180,2.0,5,5,20.0,7777,9,999999999,0,0.0000,0,0,0.000,0.0,0.0
2032,2,25,6,60,?9?9?9?9E0?9?9?9?9?9?9?9?9?9?9?9?9?9?9?9*9*9?9*9*9,10.0,5.0,50,80600,0,0,250,0,0,0,0,0,0,0,180,2.0,5,5,20.0,7777,9,999999999,0,0.0000,0,0,0.000,0.0,0.0
2032,2,25,7,60,?9?9?9?9E0?9?9?9?9?9?9?9?9?9?9?9?9?9?9?9*9*9?9*9*9,10.0,5.0,50,80600,0,0,250,0,0,0,0,0,0,0,180,2.0,5,5,20.0,7777,9,999999999,0,0.0000,0,0,0.000,0.0,0.0
2032,2,25,8,60,?9?9?9?9E0?9?9?9?9?9?9?9?9?9?9?9?9?9?9?9*9*9?9*9*9,10.0,5.0,50,80600,0,0,250,0,0,0,0,0,0,0,180,2.0,5,5,20.0,7777,9,999999999,0,0.0000,0,0,0.000,0.0,0.0
2032,2,25,9,60,?9?9?9?9E0?9?9?9?9?9?9?9?9?9?9?9?9?9?9?9*9*9?9*9*9,10.0,5.0,50,80600,0,0,250,0,0,0,0,0,0,0,180,2.0,5,5,20.0,7777,9,999999999,0,0.0000,0,0,0.000,0.0,0.0
2032,2,25,10,60,?9?9?9?9E0?9?9?9?9?9?9?9?9?9?9?9?9?9?9?9*9*9?9*9*9,10.0,5.0,50,80600,0,0,250,0,0,0,0,0,0,0,180,2.0,5,5,20.0,7777,9,999999999,0,0.0000,0,0,0.000,0.0,0.0
2032,2,25,11,60,?9?9?9?9E0?9?9?9?9?9?9?9?9?9?9?9?9?9?9?9*9*9?9*9*9,10.0,5.0,50,80600,0,0,250,0,0,0,0,0,0,0,180,2.0,5,5,20.0,7777,9,999999999,0,0.0000,0,0,0.000,0.0,0.0
2032,2,25,12,60,?9?9?9?9E0?9?9?9?9?9?9?9?9?9?9?9?9?9?9?9*9*9?9*9*9,10.0,5.0,50,80600,0,0,250,0,0,0,0,0,0,0,180,2.0,5,5,20.0,7777,9,999999999,0,0.0000,0,0,0.000,0.0,0.0
2032,2,25,13,60,?9?9?9?9E0?9?9?9?9?9?9?9?9?9?9?9?9?9?9?9*9*9?9*9*9,10.0,5.0,50,80600,0,0,250,0,0,0,0,0,0,0,180,2.0,5,5,20.0,7777,9,999999999,0,0.0000,0,0,0.000,0.0,0.0
2032,2,25,14,60,?9?9?9?9E0?9?9?9?9?9?9?9?9?9?9?9?9?9?9?9*9*9?9*9*9,10.0,5.0,50,80600,0,0,250,0,0,0,0,0,0,0,180,2.0,5,5,20.0,7777,9,999999999,0,0.0000,0,0,0.000,0.0,0.0
2032,2,25,15,60,?9?9?9?9E0?9?9?9?9?9?9?9?9?9?9?9?9?9?9?9*9*9?9*9*9,10.0,5.0,50,80600,0,0,250,0,0,0,0,0,0,0,180,2.0,5,5,20.0,7777,9,999999999,0,0.0000,0,0,0.000,0.0,0.0
2032,2,25,16,60,?9?9?9?9E0?9?9?9?9?9?9?9?9?9?9?9?9?9?9?9*9*9?9*9*9,10.0,5.0,50,80600,0,0,250,0,0,0,0,0,0,0,180,2.0,5,5,20.0,7777,9,999999999,0,0.0000,0,0,0.000,0.0,0.0
2032,2,25,17,60,?9?9?9?9E0?9?9?9?9?9?9?9?9?9?9?9?9?9?9?9*9*9?9*9*9,10.0,5.0,50,80600,0,0,250,0,0,0,0,0,0,0,180,2.0,5,5,20.0,7777,9,999999999,0,0.0000,0,0,0.000,0.0,0.0
2032,2,25,18,60,?9?9?9?9E0?9?9?9?9?9?9?9?9?9?9?9?9?9?9?9*9*9?9*9*9,10.0,5.0,50,80600,0,0,250,0,0,0,0,0,0,0,180,2.0,5,5,20.0,7777,9,999999999,0,0.0000,0,0,0.000,0.0,0.0
2032,2,25,19,60,?9?9?9?9E0?9?9?9?9?9?9?9?9?9?9?9?9?9?9?9*9*9?9*9*9,10.0,5.0,50,80600,0,0,250,0,0,0,0,0,0,0,180,2.0,5,5,20.0,7777,9,999999999,0,0.0000,0,0,0.000,0.0,0.0
2032,2,25,20,60,?9?9?9?9E0?9?9?9?9?9?9?9?9?9?9?9?9?9?9?9*9*9?9*9*9,10.0,5.0,50,80600,0,0,250,0,0,0,0,0,0,0,180,2.0,5,5,20.0,7777,9,999999999,0,0.0000,0,0,0.000,0.0,0.0
2032,2,25,21,60,?9?9?9?9E0?9?9?9?9?9?9?9?9?9?9?9?9?9?9?9*9*9?9*9*9,10.0,5.0,50,80600,0,0,250,0,0,0,0,0,0,0,180,2.0,5,5,20.0,7777,9,999999999,0,0.0000,0,0,0.000,0.0,0.0
2032,2,25,22,60,?9?9?9?9E0?9?9?9?9?9?9?9?9?9?9?9?9?9?9?9*9*9?9*9*9,10.0,5.0,50,80600,0,0,250,0,0,0,0,0,0,0,180,2.0,5,5,20.0,7777,9,999999999,0,0.0000,0,0,0.000,0.0,0.0
2032,2,25,23,60,?9?9?9?9E0?9?9?9?9?9?9?9?9?9?9?9?9?9?9?9*9*9?9*9*9,10.0,5.0,50,80600,0,0,250,0,0,0,0,0,0,0,180,2.0,5,5,20.0,7777,9,999999999,0,0.0000,0,0,0.000,0.0,0.0
2032,2,25,24,60,?9?9?9?9E0?9?9?9?9?9?9?9?9?9?9?9?9?9?9?9*9*9?9*9*9,10.0,5.0,50,80600,0,0,250,0,0,0,0,0,0,0,180,2.0,5,5,20.0,7777,9,999999999,0,0.0000,0,0,0.000,0.0,0.0
2032,2,26,1,60,?9?9?9?9E0?9?9?9?9?9?9?9?9?9?9?9?9?9?9?9*9*9?9*9*9,10.0,5.0,50,80600,0,0,250,0,0,0,0,0,0,0,180,2.0,5,5,20.0,7777,9,999999999,0,0.0000,0,0,0.000,0.0,0.0
2032,2,26,2,60,?9?9?9?9E0?9?9?9?9?9?9?9?9?9?9?9?9?9?9?9*9*9?9*9*9,10.0,5.0,50,80600,0,0,250,0,0,0,0,0,0,0,180,2.0,5,5,20.0,7777,9,999999999,0,0.0000,0,0,0.000,0.0,0.0
2032,2,26,3,60,?9?9?9?9E0?9?9?9?9?9?9?9?9?9?9?9?9?9?9?9*9*9?9*9*9,10.0,5.0,50,80600,0,0,250,0,0,0,0,0,0,0,180,2.0,5,5,20.0,7777,9,999999999,0,0.0000,0,0,0.000,0.0,0.0
2032,2,26,4,60,?9?9?9?9E0?9?9?9?9?9?9?9?9?9?9?9?9?9?9?9*9*9?9*9*9,10.0,5.0,50,80600,0,0,250,0,0,0,0,0,0,0,180,2.0,5,5,20.0,7777,9,999999999,0,0.0000,0,0,0.000,0.0,0.0
2032,2,26,5,60,?9?9?9?9E0?9?9?9?9?9?9?9?9?9?9?9?9?9?9?9*9*9?9*9*9,10.0,5.0,50,80600,0,0,250,0,0,0,0,0,0,0,180,2.0,5,5,20.0,7777,9,999999999,0,0.0000,0,0,0.000,0.0,0.0
2032,2,26,6,60,?9?9?9?9E0?9?9?9?9?9?9?9?9?9?9?9?9?9?9?9*9*9?9*9*9,10.0,5.0,50,80600,0,0,250,0,0,0,0,0,0,0,180,2.0,5,5,20.0,7777,9,999999999,0,0.0000,0,0,0.000,0.0,0.0
2032,2,26,7,60,?9?9?9?9E0?9?9?9?9?9?9?9?9?9?9?9?9?9?9?9*9*9?9*9*9,10.0,5.0,50,80600,0,0,250,0,0,0,0,0,0,0,180,2.0,5,5,20.0,7777,9,999999999,0,0.0000,0,0,0.000,0.0,0.0
2032,2,26,8,60,?9?9?9?9E0?9?9?9?9?9?9?9?9?9?9?9?9?9?9?9*9*9?9*9*9,10.0,5.0,50,80600,0,0,250,0,0,0,0,0,0,0,180,2.0,5,5,20.0,7777,9,999999999,0,0.0000,0,0,0.000,0.0,0.0
2032,2,26,9,60,?9?9?9?9E0?9?9?9?9?9?9?9?9?9?9?9?9?9?9?9*9*9?9*9*9,10.0,5.0,50,80600,0,0,250,0,0,0,0,0,0,0,180,2.0,5,5,20.0,7777,9,999999999,0,0.0000,0,0,0.000,0.0,0.0
2032,2,26,10,60,?9?9?9?9E0?9?9?9?9?9?9?9?9?9?9?9?9?9?9?9*9*9?9*9*9,10.0,5.0,50,80600,0,0,250,0,0,0,0,0,0,0,180,2.0,5,5,20.0,7777,9,999999999,0,0.0000,0,0,0.000,0.0,0.0
2032,2,26,11,60,?9?9?9?9E0?9?9?9?9?9?9?9?9?9?9?9?9?9?9?9*9*9?9*9*9,10.0,5.0,50,80600,0,0,250,0,0,0,0,0,0,0,180,2.0,5,5,20.0,7777,9,999999999,0,0.0000,0,0,0.000,0.0,0.0
2032,2,26,12,60,?9?9?9?9E0?9?9?9?9?9?9?9?9?9?9?9?9?9?9?9*9*9?9*9*9,10.0,5.0,50,80600,0,0,250,0,0,0,0,0,0,0,180,2.0,5,5,20.0,7777,9,999999999,0,0.0000,0,0,0.000,0.0,0.0
2032,2,26,13,60,?9?9?9?9E0?9?9?9?9?9?9?9?9?9?9?9?9?9?9?9*9*9?9*9*9,10.0,5.0,50,80600,0,0,250,0,0,0,0,0,0,0,180,2.0,5,5,20.0,7777,9,999999999,0,0.0000,0,0,0.000,0.0,0.0
2032,2,26,14,60,?9?9?9?9E0?9?9?9?9?9?9?9?9?9?9?9?9?9?9?9*9*9?9*9*9,10.0,5.0,50,80600,0,0,250,0,0,0,0,0,0,0,180,2.0,5,5,20.0,7777,9,999999999,0,0.0000,0,0,0.000,0.0,0.0
2032,2,26,15,60,?9?9?9?9E0?9?9?9?9?9?9?9?9?9?9?9?9?9?9?9*9*9?9*9*9,10.0,5.0,50,80600,0,0,250,0,0,0,0,0,0,0,180,2.0,5,5,20.0,7777,9,999999999,0,0.0000,0,0,0.000,0.0,0.0
2032,2,26,16,60,?9?9?9?9E0?9?9?9?9?9?9?9?9?9?9?9?9?9?9?9*9*9?9*9*9,10.0,5.0,50,80600,0,0,250,0,0,0,0,0,0,0,180,2.0,5,5,20.0,7777,9,999999999,0,0.0000,0,0,0.000,0.0,0.0
2032,2,26,17,60,?9?9?9?9E0?9?9?9?9?9?9?9?9?9?9?9?9?9?9?9*9*9?9*9*9,10.0,5.0,50,80600,0,0,250,0,0,0,0,0,0,0,180,2.0,5,5,20.0,7777,9,999999999,0,0.0000,0,0,0.000,0.0,0.0
2032,2,26,18,60,?9?9?9?9E0?9?9?9?9?9?9?9?9?9?9?9?9?9?9?9*9*9?9*9*9,10.0,5.0,50,80600,0,0,250,0,0,0,0,0,0,0,180,2.0,5,5,20.0,7777,9,999999999,0,0.0000,0,0,0.000,0.0,0.0
2032,2,26,19,60,?9?9?9?9E0?9?9?9?9?9?9?9?9?9?9?9?9?9?9?9*9*9?9*9*9,10.0,5.0,50,80600,0,0,250,0,0,0,0,0,0,0,180,2.0,5,5,20.0,7777,9,999999999,0,0.0000,0,0,0.000,0.0,0.0
2032,2,26,20,60,?9?9?9?9E0?9?9?9?9?9?9?9?9?9?9?9?9?9?9?9*9*9?9*9*9,10.0,5.0,50,80600,0,0,250,0,0,0,0,0,0,0,180,2.0,5,5,20.0,7777,9,999999999,0,0.0000,0,0,0.000,0.0,0.0
2032,2,26,21,60,?9?9?9?9E0?9?9?9?9?9?9?9?9?9?9?9?9?9?9?9*9*9?9*9*9,10.0,5.0,50,80600,0,0,250,0,0,0,0,0,0,0,180,2.0,5,5,20.0,7777,9,999999999,0,0.0000,0,0,0.000,0.0,0.0
2032,2,26,22,60,?9?9?9?9E0?9?9?9?9?9?9?9?9?9?9?9?9?9?9?9*9*9?9*9*9,10.0,5.0,50,80600,0,0,250,0,0,0,0,0,0,0,180,2.0,5,5,20.0,7777,9,999999999,0,0.0000,0,0,0.000,0.0,0.0
2032,2,26,23,60,?9?9?9?9E0?9?9?9?9?9?9?9?9?9?9?9?9?9?9?9*9*9?9*9*9,10.0,5.0,50,80600,0,0,250,0,0,0,0,0,0,0,180,2.0,5,5,20.0,7777,9,999999999,0,0.0000,0,0,0.000,0.0,0.0
2032,2,26,24,60,?9?9?9?9E0?9?9?9?9?9?9?9?9?9?9?9?9?9?9?9*9*9?9*9*9,10.0,5.0,50,80600,0,0,250,0,0,0,0,0,0,0,180,2.0,5,5,20.0,7777,9,999999999,0,0.0000,0,0,0.000,0.0,0.0
2032,2,27,1,60,?9?9?9?9E0?9?9?9?9?9?9?9?9?9?9?9?9?9?9?9*9*9?9*9*9,10.0,5.0,50,80600,0,0,250,0,0,0,0,0,0,0,180,2.0,5,5,20.0,7777,9,999999999,0,0.0000,0,0,0.000,0.0,0.0
2032,2,27,2,60,?9?9?9?9E0?9?9?9?9?9?9?9?9?9?9?9?9?9?9?9*9*9?9*9*9,10.0,5.0,50,80600,0,0,250,0,0,0,0,0,0,0,180,2.0,5,5,20.0,7777,9,999999999,0,0.0000,0,0,0.000,0.0,0.0
2032,2,27,3,60,?9?9?9?9E0?9?9?9?9?9?9?9?9?9?9?9?9?9?9?9*9*9?9*9*9,10.0,5.0,50,80600,0,0,250,0,0,0,0,0,0,0,180,2.0,5,5,20.0,7777,9,999999999,0,0.0000,0,0,0.000,0.0,0.0
2032,2,27,4,60,?9?9?9?9E0?9?9?9?9?9?9?9?9?9?9?9?9?9?9?9*9*9?9*9*9,10.0,5.0,50,80600,0,0,250,0,0,0,0,0,0,0,180,2.0,5,5,20.0,7777,9,999999999,0,0.0000,0,0,0.000,0.0,0.0
2032,2,27,5,60,?9?9?9?9E0?9?9?9?9?9?9?9?9?9?9?9?9?9?9?9*9*9?9*9*9,10.0,5.0,50,80600,0,0,250,0,0,0,0,0,0,0,180,2.0,5,5,20.0,7777,9,999999999,0,0.0000,0,0,0.000,0.0,0.0
2032,2,27,6,60,?9?9?9?9E0?9?9?9?9?9?9?9?9?9?9?9?9?9?9?9*9*9?9*9*9,10.0,5.0,50,80600,0,0,250,0,0,0,0,0,0,0,180,2.0,5,5,20.0,7777,9,999999999,0,0.0000,0,0,0.000,0.0,0.0
2032,2,27,7,60,?9?9?9?9E0?9?9?9?9?9?9?9?9?9?9?9?9?9?9?9*9*9?9*9*9,10.0,5.0,50,80600,0,0,250,0,0,0,0,0,0,0,180,2.0,5,5,20.0,7777,9,999999999,0,0.0000,0,0,0.000,0.0,0.0
2032,2,27,8,60,?9?9?9?9E0?9?9?9?9?9?9?9?9?9?9?9?9?9?9?9*9*9?9*9*9,10.0,5.0,50,80600,0,0,250,0,0,0,0,0,0,0,180,2.0,5,5,20.0,7777,9,999999999,0,0.0000,0,0,0.000,0.0,0.0
2032,2,27,9,60,?9?9?9?9E0?9?9?9?9?9?9?9?9?9?9?9?9?9?9?9*9*9?9*9*9,10.0,5.0,50,80600,0,0,250,0,0,0,0,0,0,0,180,2.0,5,5,20.0,7777,9,999999999,0,0.0000,0,0,0.000,0.0,0.0
2032,2,27,10,60,?9?9?9?9E0?9?9?9?9?9?9?9?9?9?9?9?9?9?9?9*9*9?9*9*9,10.0,5.0,50,80600,0,0,250,0,0,0,0,0,0,0,180,2.0,5,5,20.0,7777,9,999999999,0,0.0000,0,0,0.000,0.0,0.0
2032,2,27,11,60,?9?9?9?9E0?9?9?9?9?9?9?9?9?9?9?9?9?9?9?9*9*9?9*9*9,10.0,5.0,50,80600,0,0,250,0,0,0,0,0,0,0,180,2.0,5,5,20.0,7777,9,999999999,0,0.0000,0,0,0.000,0.0,0.0
2032,2,27,12,60,?9?9?9?9E0?9?9?9?9?9?9?9?9?9?9?9?9?9?9?9*9*9?9*9*9,10.0,5.0,50,80600,0,0,250,0,0,0,0,0,0,0,180,2.0,5,5,20.0,7777,9,999999999,0,0.0000,0,0,0.000,0.0,0.0
2032,2,27,13,60,?9?9?9?9E0?9?9?9?9?9?9?9?9?9?9?9?9?9?9?9*9*9?9*9*9,10.0,5.0,50,80600,0,0,250,0,0,0,0,0,0,0,180,2.0,5,5,20.0,7777,9,999999999,0,0.0000,0,0,0.000,0.0,0.0
2032,2,27,14,60,?9?9?9?9E0?9?9?9?9?9?9?9?9?9?9?9?9?9?9?9*9*9?9*9*9,10.0,5.0,50,80600,0,0,250,0,0,0,0,0,0,0,180,2.0,5,5,20.0,7777,9,999999999,0,0.0000,0,0,0.000,0.0,0.0
2032,2,27,15,60,?9?9?9?9E0?9?9?9?9?9?9?9?9?9?9?9?9?9?9?9*9*9?9*9*9,10.0,5.0,50,80600,0,0,250,0,0,0,0,0,0,0,180,2.0,5,5,20.0,7777,9,999999999,0,0.0000,0,0,0.000,0.0,0.0
2032,2,27,16,60,?9?9?9?9E0?9?9?9?9?9?9?9?9?9?9?9?9?9?9?9*9*9?9*9*9,10.0,5.0,50,80600,0,0,250,0,0,0,0,0,0,0,180,2.0,5,5,20.0,7777,9,999999999,0,0.0000,0,0,0.000,0.0,0.0
2032,2,27,17,60,?9?9?9?9E0?9?9?9?9?9?9?9?9?9?9?9?9?9?9?9*9*9?9*9*9,10.0,5.0,50,80600,0,0,250,0,0,0,0,0,0,0,180,2.0,5,5,20.0,7777,9,999999999,0,0.0000,0,0,0.000,0.0,0.0
2032,2,27,18,60,?9?9?9?9E0?9?9?9?9?9?9?9?9?9?9?9?9?9?9?9*9*9?9*9*9,10.0,5.0,50,80600,0,0,250,0,0,0,0,0,0,0,180,2.0,5,5,20.0,7777,9,999999999,0,0.0000,0,0,0.000,0.0,0.0
2032,2,27,19,60,?9?9?9?9E0?9?9?9?9?9?9?9?9?9?9?9?9?9?9?9*9*9?9*9*9,10.0,5.0,50,80600,0,0,250,0,0,0,0,0,0,0,180,2.0,5,5,20.0,7777,9,999999999,0,0.0000,0,0,0.000,0.0,0.0
2032,2,27,20,60,?9?9?9?9E0?9?9?9?9?9?9?9?9?9?9?9?9?9?9?9*9*9?9*9*9,10.0,5.0,50,80600,0,0,250,0,0,0,0,0,0,0,180,2.0,5,5,20.0,7777,9,999999999,0,0.0000,0,0,0.000,0.0,0.0
2032,2,27,21,60,?9?9?9?9E0?9?9?9?9?9?9?9?9?9?9?9?9?9?9?9*9*9?9*9*9,10.0,5.0,50,80600,0,0,250,0,0,0,0,0,0,0,180,2.0,5,5,20.0,7777,9,999999999,0,0.0000,0,0,0.000,0.0,0.0
2032,2,27,22,60,?9?9?9?9E0?9?9?9?9?9?9?9?9?9?9?9?9?9?9?9*9*9?9*9*9,10.0,5.0,50,80600,0,0,250,0,0,0,0,0,0,0,180,2.0,5,5,20.0,7777,9,999999999,0,0.0000,0,0,0.000,0.0,0.0
2032,2,27,23,60,?9?9?9?9E0?9?9?9?9?9?9?9?9?9?9?9?9?9?9?9*9*9?9*9*9,10.0,5.0,50,80600,0,0,250,0,0,0,0,0,0,0,180,2.0,5,5,20.0,7777,9,999999999,0,0.0000,0,0,0.000,0.0,0.0
2032,2,27,24,60,?9?9?9?9E0?9?9?9?9?9?9?9?9?9?9?9?9?9?9?9*9*9?9*9*9,10.0,5.0,50,80600,0,0,250,0,0,0,0,0,0,0,180,2.0,5,5,20.0,7777,9,999999999,0,0.0000,0,0,0.000,0.0,0.0
2032,2,28,1,60,?9?9?9?9E0?9?9?9?9?9?9?9?9?9?9?9?9?9?9?9*9*9?9*9*9,10.0,5.0,50,80600,0,0,250,0,0,0,0,0,0,0,180,2.0,5,5,20.0,7777,9,999999999,0,0.0000,0,0,0.000,0.0,0.0
2032,2,28,2,60,?9?9?9?9E0?9?9?9?9?9?9?9?9?9?9?9?9?9?9?9*9*9?9*9*9,10.0,5.0,50,80600,0,0,250,0,0,0,0,0,0,0,180,2.0,5,5,20.0,7777,9,999999999,0,0.0000,0,0,0.000,0.0,0.0
2032,2,28,3,60,?9?9?9?9E0?9?9?9?9?9?9?9?9?9?9?9?9?9?9?9*9*9?9*9*9,10.0,5.0,50,80600,0,0,250,0,0,0,0,0,0,0,180,2.0,5,5,20.0,7777,9,999999999,0,0.0000,0,0,0.000,0.0,0.0
2032,2,28,4,60,?9?9?9?9E0?9?9?9?9?9?9?9?9?9?9?9?9?9?9?9*9*9?9*9*9,10.0,5.0,50,80600,0,0,250,0,0,0,0,0,0,0,180,2.0,5,5,20.0,7777,9,999999999,0,0.0000,0,0,0.000,0.0,0.0
2032,2,28,5,60,?9?9?9?9E0?9?9?9?9?9?9?9?9?9?9?9?9?9?9?9*9*9?9*9*9,10.0,5.0,50,80600,0,0,250,0,0,0,0,0,0,0,180,2.0,5,5,20.0,7777,9,999999999,0,0.0000,0,0,0.000,0.0,0.0
2032,2,28,6,60,?9?9?9?9E0?9?9?9?9?9?9?9?9?9?9?9?9?9?9?9*9*9?9*9*9,10.0,5.0,50,80600,0,0,250,0,0,0,0,0,0,0,180,2.0,5,5,20.0,7777,9,999999999,0,0.0000,0,0,0.000,0.0,0.0
2032,2,28,7,60,?9?9?9?9E0?9?9?9?9?9?9?9?9?9?9?9?9?9?9?9*9*9?9*9*9,10.0,5.0,50,80600,0,0,250,0,0,0,0,0,0,0,180,2.0,5,5,20.0,7777,9,999999999,0,0.0000,0,0,0.000,0.0,0.0
2032,2,28,8,60,?9?9?9?9E0?9?9?9?9?9?9?9?9?9?9?9?9?9?9?9*9*9?9*9*9,10.0,5.0,50,80600,0,0,250,0,0,0,0,0,0,0,180,2.0,5,5,20.0,7777,9,999999999,0,0.0000,0,0,0.000,0.0,0.0
2032,2,28,9,60,?9?9?9?9E0?9?9?9?9?9?9?9?9?9?9?9?9?9?9?9*9*9?9*9*9,10.0,5.0,50,80600,0,0,250,0,0,0,0,0,0,0,180,2.0,5,5,20.0,7777,9,999999999,0,0.0000,0,0,0.000,0.0,0.0
2032,2,28,10,60,?9?9?9?9E0?9?9?9?9?9?9?9?9?9?9?9?9?9?9?9*9*9?9*9*9,10.0,5.0,50,80600,0,0,250,0,0,0,0,0,0,0,180,2.0,5,5,20.0,7777,9,999999999,0,0.0000,0,0,0.000,0.0,0.0
2032,2,28,11,60,?9?9?9?9E0?9?9?9?9?9?9?9?9?9?9?9?9?9?9?9*9*9?9*9*9,10.0,5.0,50,80600,0,0,250,0,0,0,0,0,0,0,180,2.0,5,5,20.0,7777,9,999999999,0,0.0000,0,0,0.000,0.0,0.0
2032,2,28,12,60,?9?9?9?9E0?9?9?9?9?9?9?9?9?9?9?9?9?9?9?9*9*9?9*9*9,10.0,5.0,50,80600,0,0,250,0,0,0,0,0,0,0,180,2.0,5,5,20.0,7777,9,999999999,0,0.0000,0,0,0.000,0.0,0.0
2032,2,28,13,60,?9?9?9?9E0?9?9?9?9?9?9?9?9?9?9?9?9?9?9?9*9*9?9*9*9,10.0,5.0,50,80600,0,0,250,0,0,0,0,0,0,0,180,2.0,5,5,20.0,7777,9,999999999,0,0.0000,0,0,0.000,0.0,0.0
2032,2,28,14,60,?9?9?9?9E0?9?9?9?9?9?9?9?9?9?9?9?9?9?9?9*9*9?9*9*9,10.0,5.0,50,80600,0,0,250,0,0,0,0,0,0,0,180,2.0,5,5,20.0,7777,9,999999999,0,0.0000,0,0,0.000,0.0,0.0
2032,2,28,15,60,?9?9?9?9E0?9?9?9?9?9?9?9?9?9?9?9?9?9?9?9*9*9?9*9*9,10.0,5.0,50,80600,0,0,250,0,0,0,0,0,0,0,180,2.0,5,5,20.0,7777,9,999999999,0,0.0000,0,0,0.000,0.0,0.0
2032,2,28,16,60,?9?9?9?9E0?9?9?9?9?9?9?9?9?9?9?9?9?9?9?9*9*9?9*9*9,10.0,5.0,50,80600,0,0,250,0,0,0,0,0,0,0,180,2.0,5,5,20.0,7777,9,999999999,0,0.0000,0,0,0.000,0.0,0.0
2032,2,28,17,60,?9?9?9?9E0?9?9?9?9?9?9?9?9?9?9?9?9?9?9?9*9*9?9*9*9,10.0,5.0,50,80600,0,0,250,0,0,0,0,0,0,0,180,2.0,5,5,20.0,7777,9,999999999,0,0.0000,0,0,0.000,0.0,0.0
2032,2,28,18,60,?9?9?9?9E0?9?9?9?9?9?9?9?9?9?9?9?9?9?9?9*9*9?9*9*9,10.0,5.0,50,80600,0,0,250,0,0,0,0,0,0,0,180,2.0,5,5,20.0,7777,9,999999999,0,0.0000,0,0,0.000,0.0,0.0
2032,2,28,19,60,?9?9?9?9E0?9?9?9?9?9?9?9?9?9?9?9?9?9?9?9*9*9?9*9*9,10.0,5.0,50,80600,0,0,250,0,0,0,0,0,0,0,180,2.0,5,5,20.0,7777,9,999999999,0,0.0000,0,0,0.000,0.0,0.0
2032,2,28,20,60,?9?9?9?9E0?9?9?9?9?9?9?9?9?9?9?9?9?9?9?9*9*9?9*9*9,10.0,5.0,50,80600,0,0,250,0,0,0,0,0,0,0,180,2.0,5,5,20.0,7777,9,999999999,0,0.0000,0,0,0.000,0.0,0.0
2032,2,28,21,60,?9?9?9?9E0?9?9?9?9?9?9?9?9?9?9?9?9?9?9?9*9*9?9*9*9,10.0,5.0,50,80600,0,0,250,0,0,0,0,0,0,0,180,2.0,5,5,20.0,7777,9,999999999,0,0.0000,0,0,0.000,0.0,0.0
2032,2,28,22,60,?9?9?9?9E0?9?9?9?9?9?9?9?9?9?9?9?9?9?9?9*9*9?9*9*9,10.0,5.0,50,80600,0,0,250,0,0,0,0,0,0,0,180,2.0,5,5,20.0,7777,9,999999999,0,0.0000,0,0,0.000,0.0,0.0
2032,2,28,23,60,?9?9?9?9E0?9?9?9?9?9?9?9?9?9?9?9?9?9?9?9*9*9?9*9*9,10.0,5.0,50,80600,0,0,250,0,0,0,0,0,0,0,180,2.0,5,5,20.0,7777,9,999999999,0,0.0000,0,0,0.000,0.0,0.0
2032,2,28,24,60,?9?9?9?9E0?9?9?9?9?9?9?9?9?9?9?9?9?9?9?9*9*9?9*9*9,10.0,5.0,50,80600,0,0,250,0,0,0,0,0,0,0,180,2.0,5,5,20.0,7777,9,999999999,0,0.0000,0,0,0.000,0.0,0.0
2032,2,29,1,60,?9?9?9?9E0?9?9?9?9?9?9?9?9?9?9?9?9?9?9?9*9*9?9*9*9,10.0,5.0,50,80600,0,0,250,0,0,0,0,0,0,0,180,2.0,5,5,20.0,7777,9,999999999,0,0.0000,0,0,0.000,0.0,0.0
2032,2,29,2,60,?9?9?9?9E0?9?9?9?9?9?9?9?9?9?9?9?9?9?9?9*9*9?9*9*9,10.0,5.0,50,80600,0,0,250,0,0,0,0,0,0,0,180,2.0,5,5,20.0,7777,9,999999999,0,0.0000,0,0,0.000,0.0,0.0
2032,2,29,3,60,?9?9?9?9E0?9?9?9?9?9?9?9?9?9?9?9?9?9?9?9*9*9?9*9*9,10.0,5.0,50,80600,0,0,250,0,0,0,0,0,0,0,180,2.0,5,5,20.0,7777,9,999999999,0,0.0000,0,0,0.000,0.0,0.0
2032,2,29,4,60,?9?9?9?9E0?9?9?9?9?9?9?9?9?9?9?9?9?9?9?9*9*9?9*9*9,10.0,5.0,50,80600,0,0,250,0,0,0,0,0,0,0,180,2.0,5,5,20.0,7777,9,999999999,0,0.0000,0,0,0.000,0.0,0.0
2032,2,29,5,60,?9?9?9?9E0?9?9?9?9?9?9?9?9?9?9?9?9?9?9?9*9*9?9*9*9,10.0,5.0,50,80600,0,0,250,0,0,0,0,0,0,0,180,2.0,5,5,20.0,7777,9,999999999,0,0.0000,0,0,0.000,0.0,0.0
2032,2,29,6,60,?9?9?9?9E0?9?9?9?9?9?9?9?9?9?9?9?9?9?9?9*9*9?9*9*9,10.0,5.0,50,80600,0,0,250,0,0,0,0,0,0,0,180,2.0,5,5,20.0,7777,9,999999999,0,0.0000,0,0,0.000,0.0,0.0
2032,2,29,7,60,?9?9?9?9E0?9?9?9?9?9?9?9?9?9?9?9?9?9?9?9*9*9?9*9*9,10.0,5.0,50,80600,0,0,250,0,0,0,0,0,0,0,180,2.0,5,5,20.0,7777,9,999999999,0,0.0000,0,0,0.000,0.0,0.0
2032,2,29,8,60,?9?9?9?9E0?9?9?9?9?9?9?9?9?9?9?9?9?9?9?9*9*9?9*9*9,10.0,5.0,50,80600,0,0,250,0,0,0,0,0,0,0,180,2.0,5,5,20.0,7777,9,999999999,0,0.0000,0,0,0.000,0.0,0.0
2032,2,29,9,60,?9?9?9?9E0?9?9?9?9?9?9?9?9?9?9?9?9?9?9?9*9*9?9*9*9,10.0,5.0,50,80600,0,0,250,0,0,0,0,0,0,0,180,2.0,5,5,20.0,7777,9,999999999,0,0.0000,0,0,0.000,0.0,0.0
2032,2,29,10,60,?9?9?9?9E0?9?9?9?9?9?9?9?9?9?9?9?9?9?9?9*9*9?9*9*9,10.0,5.0,50,80600,0,0,250,0,0,0,0,0,0,0,180,2.0,5,5,20.0,7777,9,999999999,0,0.0000,0,0,0.000,0.0,0.0
2032,2,29,11,60,?9?9?9?9E0?9?9?9?9?9?9?9?9?9?9?9?9?9?9?9*9*9?9*9*9,10.0,5.0,50,80600,0,0,250,0,0,0,0,0,0,0,180,2.0,5,5,20.0,7777,9,999999999,0,0.0000,0,0,0.000,0.0,0.0
2032,2,29,12,60,?9?9?9?9E0?9?9?9?9?9?9?9?9?9?9?9?9?9?9?9*9*9?9*9*9,10.0,5.0,50,80600,0,0,250,0,0,0,0,0,0,0,180,2.0,5,5,20.0,7777,9,999999999,0,0.0000,0,0,0.000,0.0,0.0
2032,2,29,13,60,?9?9?9?9E0?9?9?9?9?9?9?9?9?9?9?9?9?9?9?9*9*9?9*9*9,10.0,5.0,50,80600,0,0,250,0,0,0,0,0,0,0,180,2.0,5,5,20.0,7777,9,999999999,0,0.0000,0,0,0.000,0.0,0.0
2032,2,29,14,60,?9?9?9?9E0?9?9?9?9?9?9?9?9?9?9?9?9?9?9?9*9*9?9*9*9,10.0,5.0,50,80600,0,0,250,0,0,0,0,0,0,0,180,2.0,5,5,20.0,7777,9,999999999,0,0.0000,0,0,0.000,0.0,0.0
2032,2,29,15,60,?9?9?9?9E0?9?9?9?9?9?9?9?9?9?9?9?9?9?9?9*9*9?9*9*9,10.0,5.0,50,80600,0,0,250,0,0,0,0,0,0,0,180,2.0,5,5,20.0,7777,9,999999999,0,0.0000,0,0,0.000,0.0,0.0
2032,2,29,16,60,?9?9?9?9E0?9?9?9?9?9?9?9?9?9?9?9?9?9?9?9*9*9?9*9*9,10.0,5.0,50,80600,0,0,250,0,0,0,0,0,0,0,180,2.0,5,5,20.0,7777,9,999999999,0,0.0000,0,0,0.000,0.0,0.0
2032,2,29,17,60,?9?9?9?9E0?9?9?9?9?9?9?9?9?9?9?9?9?9?9?9*9*9?9*9*9,10.0,5.0,50,80600,0,0,250,0,0,0,0,0,0,0,180,2.0,5,5,20.0,7777,9,999999999,0,0.0000,0,0,0.000,0.0,0.0
2032,2,29,18,60,?9?9?9?9E0?9?9?9?9?9?9?9?9?9?9?9?9?9?9?9*9*9?9*9*9,10.0,5.0,50,80600,0,0,250,0,0,0,0,0,0,0,180,2.0,5,5,20.0,7777,9,999999999,0,0.0000,0,0,0.000,0.0,0.0
2032,2,29,19,60,?9?9?9?9E0?9?9?9?9?9?9?9?9?9?9?9?9?9?9?9*9*9?9*9*9,10.0,5.0,50,80600,0,0,250,0,0,0,0,0,0,0,180,2.0,5,5,20.0,7777,9,999999999,0,0.0000,0,0,0.000,0.0,0.0
2032,2,29,20,60,?9?9?9?9E0?9?9?9?9?9?9?9?9?9?9?9?9?9?9?9*9*9?9*9*9,10.0,5.0,50,80600,0,0,250,0,0,0,0,0,0,0,180,2.0,5,5,20.0,7777,9,999999999,0,0.0000,0,0,0.000,0.0,0.0
2032,2,29,21,60,?9?9?9?9E0?9?9?9?9?9?9?9?9?9?9?9?9?9?9?9*9*9?9*9*9,10.0,5.0,50,80600,0,0,250,0,0,0,0,0,0,0,180,2.0,5,5,20.0,7777,9,999999999,0,0.0000,0,0,0.000,0.0,0.0
2032,2,29,22,60,?9?9?9?9E0?9?9?9?9?9?9?9?9?9?9?9?9?9?9?9*9*9?9*9*9,10.0,5.0,50,80600,0,0,250,0,0,0,0,0,0,0,180,2.0,5,5,20.0,7777,9,999999999,0,0.0000,0,0,0.000,0.0,0.0
2032,2,29,23,60,?9?9?9?9E0?9?9?9?9?9?9?9?9?9?9?9?9?9?9?9*9*9?9*9*9,10.0,5.0,50,80600,0,0,250,0,0,0,0,0,0,0,180,2.0,5,5,20.0,7777,9,999999999,0,0.0000,0,0,0.000,0.0,0.0
2032,2,29,24,60,?9?9?9?9E0?9?9?9?9?9?9?9?9?9?9?9?9?9?9?9*9*9?9*9*9,10.0,5.0,50,80600,0,0,250,0,0,0,0,0,0,0,180,2.0,5,5,20.0,7777,9,999999999,0,0.0000,0,0,0.000,0.0,0.0
2032,3,1,1,60,?9?9?9?9E0?9?9?9?9?9?9?9?9?9?9?9?9?9?9?9*9*9?9*9*9,10.0,5.0,50,80600,0,0,250,0,0,0,0,0,0,0,180,2.0,5,5,20.0,7777,9,999999999,0,0.0000,0,0,0.000,0.0,0.0
2032,3,1,2,60,?9?9?9?9E0?9?9?9?9?9?9?9?9?9?9?9?9?9?9?9*9*9?9*9*9,10.0,5.0,50,80600,0,0,250,0,0,0,0,0,0,0,180,2.0,5,5,20.0,7777,9,999999999,0,0.0000,0,0,0.000,0.0,0.0
2032,3,1,3,60,?9?9?9?9E0?9?9?9?9?9?9?9?9?9?9?9?9?9?9?9*9*9?9*9*9,10.0,5.0,50,80600,0,0,250,0,0,0,0,0,0,0,180,2.0,5,5,20.0,7777,9,999999999,0,0.0000,0,0,0.000,0.0,0.0
2032,3,1,4,60,?9?9?9?9E0?9?9?9?9?9?9?9?9?9?9?9?9?9?9?9*9*9?9*9*9,10.0,5.0,50,80600,0,0,250,0,0,0,0,0,0,0,180,2.0,5,5,20.0,7777,9,999999999,0,0.0000,0,0,0.000,0.0,0.0
2032,3,1,5,60,?9?9?9?9E0?9?9?9?9?9?9?9?9?9?9?9?9?9?9?9*9*9?9*9*9,10.0,5.0,50,80600,0,0,250,0,0,0,0,0,0,0,180,2.0,5,5,20.0,7777,9,999999999,0,0.0000,0,0,0.000,0.0,0.0
2032,3,1,6,60,?9?9?9?9E0?9?9?9?9?9?9?9?9?9?9?9?9?9?9?9*9*9?9*9*9,10.0,5.0,50,80600,0,0,250,0,0,0,0,0,0,0,180,2.0,5,5,20.0,7777,9,999999999,0,0.0000,0,0,0.000,0.0,0.0
2032,3,1,7,60,?9?9?9?9E0?9?9?9?9?9?9?9?9?9?9?9?9?9?9?9*9*9?9*9*9,10.0,5.0,50,80600,0,0,250,0,0,0,0,0,0,0,180,2.0,5,5,20.0,7777,9,999999999,0,0.0000,0,0,0.000,0.0,0.0
2032,3,1,8,60,?9?9?9?9E0?9?9?9?9?9?9?9?9?9?9?9?9?9?9?9*9*9?9*9*9,10.0,5.0,50,80600,0,0,250,0,0,0,0,0,0,0,180,2.0,5,5,20.0,7777,9,999999999,0,0.0000,0,0,0.000,0.0,0.0
2032,3,1,9,60,?9?9?9?9E0?9?9?9?9?9?9?9?9?9?9?9?9?9?9?9*9*9?9*9*9,10.0,5.0,50,80600,0,0,250,0,0,0,0,0,0,0,180,2.0,5,5,20.0,7777,9,999999999,0,0.0000,0,0,0.000,0.0,0.0
2032,3,1,10,60,?9?9?9?9E0?9?9?9?9?9?9?9?9?9?9?9?9?9?9?9*9*9?9*9*9,10.0,5.0,50,80600,0,0,250,0,0,0,0,0,0,0,180,2.0,5,5,20.0,7777,9,999999999,0,0.0000,0,0,0.000,0.0,0.0
2032,3,1,11,60,?9?9?9?9E0?9?9?9?9?9?9?9?9?9?9?9?9?9?9?9*9*9?9*9*9,10.0,5.0,50,80600,0,0,250,0,0,0,0,0,0,0,180,2.0,5,5,20.0,7777,9,999999999,0,0.0000,0,0,0.000,0.0,0.0
2032,3,1,12,60,?9?9?9?9E0?9?9?9?9?9?9?9?9?9?9?9?9?9?9?9*9*9?9*9*9,10.0,5.0,50,80600,0,0,250,0,0,0,0,0,0,0,180,2.0,5,5,20.0,7777,9,999999999,0,0.0000,0,0,0.000,0.0,0.0
2032,3,1,13,60,?9?9?9?9E0?9?9?9?9?9?9?9?9?9?9?9?9?9?9?9*9*9?9*9*9,10.0,5.0,50,80600,0,0,250,0,0,0,0,0,0,0,180,2.0,5,5,20.0,7777,9,999999999,0,0.0000,0,0,0.000,0.0,0.0
2032,3,1,14,60,?9?9?9?9E0?9?9?9?9?9?9?9?9?9?9?9?9?9?9?9*9*9?9*9*9,10.0,5.0,50,80600,0,0,250,0,0,0,0,0,0,0,180,2.0,5,5,20.0,7777,9,999999999,0,0.0000,0,0,0.000,0.0,0.0
2032,3,1,15,60,?9?9?9?9E0?9?9?9?9?9?9?9?9?9?9?9?9?9?9?9*9*9?9*9*9,10.0,5.0,50,80600,0,0,250,0,0,0,0,0,0,0,180,2.0,5,5,20.0,7777,9,999999999,0,0.0000,0,0,0.000,0.0,0.0
2032,3,1,16,60,?9?9?9?9E0?9?9?9?9?9?9?9?9?9?9?9?9?9?9?9*9*9?9*9*9,10.0,5.0,50,80600,0,0,250,0,0,0,0,0,0,0,180,2.0,5,5,20.0,7777,9,999999999,0,0.0000,0,0,0.000,0.0,0.0
2032,3,1,17,60,?9?9?9?9E0?9?9?9?9?9?9?9?9?9?9?9?9?9?9?9*9*9?9*9*9,10.0,5.0,50,80600,0,0,250,0,0,0,0,0,0,0,180,2.0,5,5,20.0,7777,9,999999999,0,0.0000,0,0,0.000,0.0,0.0
2032,3,1,18,60,?9?9?9?9E0?9?9?9?9?9?9?9?9?9?9?9?9?9?9?9*9*9?9*9*9,10.0,5.0,50,80600,0,0,250,0,0,0,0,0,0,0,180,2.0,5,5,20.0,7777,9,999999999,0,0.0000,0,0,0.000,0.0,0.0
2032,3,1,19,60,?9?9?9?9E0?9?9?9?9?9?9?9?9?9?9?9?9?9?9?9*9*9?9*9*9,10.0,5.0,50,80600,0,0,250,0,0,0,0,0,0,0,180,2.0,5,5,20.0,7777,9,999999999,0,0.0000,0,0,0.000,0.0,0.0
2032,3,1,20,60,?9?9?9?9E0?9?9?9?9?9?9?9?9?9?9?9?9?9?9?9*9*9?9*9*9,10.0,5.0,50,80600,0,0,250,0,0,0,0,0,0,0,180,2.0,5,5,20.0,7777,9,999999999,0,0.0000,0,0,0.000,0.0,0.0
2032,3,1,21,60,?9?9?9?9E0?9?9?9?9?9?9?9?9?9?9?9?9?9?9?9*9*9?9*9*9,10.0,5.0,50,80600,0,0,250,0,0,0,0,0,0,0,180,2.0,5,5,20.0,7777,9,999999999,0,0.0000,0,0,0.000,0.0,0.0
2032,3,1,22,60,?9?9?9?9E0?9?9?9?9?9?9?9?9?9?9?9?9?9?9?9*9*9?9*9*9,10.0,5.0,50,80600,0,0,250,0,0,0,0,0,0,0,180,2.0,5,5,20.0,7777,9,999999999,0,0.0000,0,0,0.000,0.0,0.0
2032,3,1,23,60,?9?9?9?9E0?9?9?9?9?9?9?9?9?9?9?9?9?9?9?9*9*9?9*9*9,10.0,5.0,50,80600,0,0,250,0,0,0,0,0,0,0,180,2.0,5,5,20.0,7777,9,999999999,0,0.0000,0,0,0.000,0.0,0.0
2032,3,1,24,60,?9?9?9?9E0?9?9?9?9?9?9?9?9?9?9?9?9?9?9?9*9*9?9*9*9,10.0,5.0,50,80600,0,0,250,0,0,0,0,0,0,0,180,2.0,5,5,20.0,7777,9,999999999,0,0.0000,0,0,0.000,0.0,0.0
