Version,26.1;

Building,
  Calendar Schedule Hourly Exact Fixture,
  0.0,
  Suburbs,
  0.04,
  0.4,
  FullExterior,
  25,
  6;

Timestep,4;

GlobalGeometryRules,
  UpperLeftCorner,
  CounterClockWise,
  World;

RunPeriod,
  Leap Day Exact Run Period,
  2,
  28,
  2016,
  3,
  1,
  2016,
  Sunday,
  No,  !- Use Weather File Holidays and Special Days
  No,  !- Use Weather File Daylight Saving Period
  No,  !- Apply Weekend Holiday Rule
  No,  !- Use Weather File Rain Indicators
  No,  !- Use Weather File Snow Indicators
  No;  !- Treat Weather as Actual

ScheduleTypeLimits,
  Any Number;

Schedule:Compact,
  Calendar Hourly 1 To 24,
  Any Number,
  Through: 12/31,
  For: AllDays,
  Until: 01:00, 1,
  Until: 02:00, 2,
  Until: 03:00, 3,
  Until: 04:00, 4,
  Until: 05:00, 5,
  Until: 06:00, 6,
  Until: 07:00, 7,
  Until: 08:00, 8,
  Until: 09:00, 9,
  Until: 10:00, 10,
  Until: 11:00, 11,
  Until: 12:00, 12,
  Until: 13:00, 13,
  Until: 14:00, 14,
  Until: 15:00, 15,
  Until: 16:00, 16,
  Until: 17:00, 17,
  Until: 18:00, 18,
  Until: 19:00, 19,
  Until: 20:00, 20,
  Until: 21:00, 21,
  Until: 22:00, 22,
  Until: 23:00, 23,
  Until: 24:00, 24;

Output:Variable,
  Calendar Hourly 1 To 24,
  Schedule Value,
  Hourly;
