Version,26.1;

Building,
  Schedule Compact Interpolation Modes Exact Fixture,
  0.0,
  Suburbs,
  0.04,
  0.4,
  FullExterior,
  25,
  6;

Timestep,4;

GlobalGeometryRules,
  UpperLeftCorner,
  CounterClockWise,
  World;

RunPeriod,
  Schedule Compact Interpolation Modes Run Period,
  1,
  1,
  2032,
  1,
  1,
  2032,
  Thursday,
  No,
  No,
  No,
  No,
  No,
  No;

ScheduleTypeLimits,
  Any Number;

Schedule:Compact,
  Interpolation No Schedule,
  Any Number,
  Through: 12/31,
  For: AllDays,
  Interpolate: No,
  Until: 00:20,
  10,
  Until: 01:15,
  175,
  Until: 24:00,
  175;

Schedule:Compact,
  Interpolation Average Schedule,
  Any Number,
  Through: 12/31,
  For: AllDays,
  Interpolate: Average,
  Until: 00:20,
  10,
  Until: 01:15,
  175,
  Until: 24:00,
  175;

Schedule:Compact,
  Interpolation Linear Schedule,
  Any Number,
  Through: 12/31,
  For: AllDays,
  Interpolate: Linear,
  Until: 00:20,
  10,
  Until: 01:15,
  175,
  Until: 24:00,
  175;

Output:Variable,
  INTERPOLATION NO SCHEDULE,
  Schedule Value,
  Timestep;

Output:Variable,
  INTERPOLATION AVERAGE SCHEDULE,
  Schedule Value,
  Timestep;

Output:Variable,
  INTERPOLATION LINEAR SCHEDULE,
  Schedule Value,
  Timestep;
