Version,
  26.1;

SimulationControl,
  No,
  No,
  No,
  No,
  Yes,
  No;

Building,
  Window Material Shade Compare,
  0.0,
  Suburbs,
  0.04,
  0.4,
  FullExterior,
  25,
  6;

Site:Location,
  Golden,
  39.74,
  -105.18,
  -7.0,
  1829.0;

RunPeriod,
  Run Period 1,
  1,
  1,
  2013,
  1,
  1,
  2013,
  Tuesday,
  Yes,
  Yes,
  No,
  Yes,
  Yes;

Timestep,
  4;

HeatBalanceAlgorithm,
  ConductionTransferFunction;

SurfaceConvectionAlgorithm:Inside,
  TARP;

SurfaceConvectionAlgorithm:Outside,
  DOE-2;

Site:GroundTemperature:BuildingSurface,
  18,
  18,
  18,
  18,
  18,
  18,
  18,
  18,
  18,
  18,
  18,
  18;

GlobalGeometryRules,
  UpperLeftCorner,
  Counterclockwise,
  World;

Zone,
  SHADE TEST ZONE,
  0,
  0,
  0,
  0,
  1,
  1,
  3,
  48,
  16;

Material,
  DISTINCTIVE SHADE OPAQUE HOST MATERIAL,
  Rough,
  0.113,
  0.347,
  913.0,
  836.0,
  0.87,
  0.63,
  0.58;

WindowMaterial:Glazing,
  DISTINCTIVE SHADE TEST GLASS,
  SpectralAverage,
  ,
  0.006,
  0.775,
  0.071,
  0.071,
  0.881,
  0.080,
  0.080,
  0.0,
  0.84,
  0.84,
  0.9;

WindowMaterial:Shade,
  A DEFAULTED UNUSED SHADE,
  0.075,
  0.70,
  0.032,
  0.50,
  0.15,
  0.41,
  0.0004,
  0.1;

WindowMaterial:Shade,
  B REUSED HIGH PRECISION SHADE,
  0.12345,
  0.23456,
  0.34567,
  0.45678,
  0.56789,
  0.12345,
  0.0004567,
  0.12345,
  0.061,
  0.2,
  0.3,
  0.4,
  0.5,
  0.6;

Construction,
  A BARE SINGLE SHADE WINDOW CONSTRUCTION,
  DISTINCTIVE SHADE TEST GLASS;

Construction,
  B EXTERIOR SHADE WINDOW CONSTRUCTION,
  B REUSED HIGH PRECISION SHADE,
  DISTINCTIVE SHADE TEST GLASS;

Construction,
  C INTERIOR SHADE WINDOW CONSTRUCTION,
  DISTINCTIVE SHADE TEST GLASS,
  B REUSED HIGH PRECISION SHADE;

Construction,
  G SHADE OPAQUE HOST CONSTRUCTION,
  DISTINCTIVE SHADE OPAQUE HOST MATERIAL;

BuildingSurface:Detailed,
  DISTINCTIVE SHADE WINDOW HOST WALL,
  Wall,
  G SHADE OPAQUE HOST CONSTRUCTION,
  SHADE TEST ZONE,
  ,
  Outdoors,
  ,
  SunExposed,
  WindExposed,
  0.5,
  4,
  0.0,
  0.0,
  3.0,
  0.0,
  0.0,
  0.0,
  4.0,
  0.0,
  0.0,
  4.0,
  0.0,
  3.0;

BuildingSurface:Detailed,
  SHADE TEST EAST WALL,
  Wall,
  G SHADE OPAQUE HOST CONSTRUCTION,
  SHADE TEST ZONE,
  ,
  Outdoors,
  ,
  SunExposed,
  WindExposed,
  0.5,
  4,
  4.0,
  0.0,
  3.0,
  4.0,
  0.0,
  0.0,
  4.0,
  4.0,
  0.0,
  4.0,
  4.0,
  3.0;

BuildingSurface:Detailed,
  SHADE TEST FLOOR,
  Floor,
  G SHADE OPAQUE HOST CONSTRUCTION,
  SHADE TEST ZONE,
  ,
  Ground,
  ,
  NoSun,
  NoWind,
  1.0,
  4,
  4.0,
  4.0,
  0.0,
  4.0,
  0.0,
  0.0,
  0.0,
  0.0,
  0.0,
  0.0,
  4.0,
  0.0;

BuildingSurface:Detailed,
  SHADE TEST NORTH WALL,
  Wall,
  G SHADE OPAQUE HOST CONSTRUCTION,
  SHADE TEST ZONE,
  ,
  Outdoors,
  ,
  SunExposed,
  WindExposed,
  0.5,
  4,
  4.0,
  4.0,
  3.0,
  4.0,
  4.0,
  0.0,
  0.0,
  4.0,
  0.0,
  0.0,
  4.0,
  3.0;

BuildingSurface:Detailed,
  SHADE TEST ROOF,
  Roof,
  G SHADE OPAQUE HOST CONSTRUCTION,
  SHADE TEST ZONE,
  ,
  Outdoors,
  ,
  SunExposed,
  WindExposed,
  0.0,
  4,
  0.0,
  4.0,
  3.0,
  0.0,
  0.0,
  3.0,
  4.0,
  0.0,
  3.0,
  4.0,
  4.0,
  3.0;

BuildingSurface:Detailed,
  SHADE TEST WEST WALL,
  Wall,
  G SHADE OPAQUE HOST CONSTRUCTION,
  SHADE TEST ZONE,
  ,
  Outdoors,
  ,
  SunExposed,
  WindExposed,
  0.5,
  4,
  0.0,
  4.0,
  3.0,
  0.0,
  4.0,
  0.0,
  0.0,
  0.0,
  0.0,
  0.0,
  0.0,
  3.0;

FenestrationSurface:Detailed,
  DISTINCTIVE EXTERIOR SHADE TEST WINDOW,
  Window,
  A BARE SINGLE SHADE WINDOW CONSTRUCTION,
  DISTINCTIVE SHADE WINDOW HOST WALL,
  ,
  0.5,
  ,
  1.0,
  4,
  0.2,
  0,
  2.8,
  0.2,
  0,
  1.7,
  1.1,
  0,
  1.7,
  1.1,
  0,
  2.8;

FenestrationSurface:Detailed,
  DISTINCTIVE INTERIOR SHADE TEST WINDOW,
  Window,
  A BARE SINGLE SHADE WINDOW CONSTRUCTION,
  DISTINCTIVE SHADE WINDOW HOST WALL,
  ,
  0.5,
  ,
  1.0,
  4,
  1.2,
  0,
  2.8,
  1.2,
  0,
  1.7,
  2.1,
  0,
  1.7,
  2.1,
  0,
  2.8;

WindowShadingControl,
  EXTERIOR SHADE TEST CONTROL,
  SHADE TEST ZONE,
  1,
  ExteriorShade,
  B EXTERIOR SHADE WINDOW CONSTRUCTION,
  OnIfHighSolarOnWindow,
  ,
  20.0,
  No,
  No,
  ,
  ,
  ,
  ,
  ,
  Sequential,
  DISTINCTIVE EXTERIOR SHADE TEST WINDOW;

WindowShadingControl,
  INTERIOR SHADE TEST CONTROL,
  SHADE TEST ZONE,
  2,
  InteriorShade,
  C INTERIOR SHADE WINDOW CONSTRUCTION,
  OnIfHighSolarOnWindow,
  ,
  20.0,
  No,
  No,
  ,
  ,
  ,
  ,
  ,
  Sequential,
  DISTINCTIVE INTERIOR SHADE TEST WINDOW;

Output:Constructions,
  Constructions,
  Materials;

Output:Surfaces:List,
  Details;

Output:Variable,
  *,
  Zone Mean Air Temperature,
  Hourly;
