Version,26.1;

SimulationControl,No,No,No,No,Yes,No;

Building,Window Glazing Refraction Extinction Compare,0.0,Suburbs,0.04,0.4,FullExterior,25,6;

Timestep,4;

HeatBalanceAlgorithm,ConductionTransferFunction;

SurfaceConvectionAlgorithm:Inside,TARP;

SurfaceConvectionAlgorithm:Outside,DOE-2;

Site:Location,Golden,39.74,-105.18,-7.0,1829.0;

Site:GroundTemperature:BuildingSurface,18,18,18,18,18,18,18,18,18,18,18,18;

RunPeriod,Run Period 1,1,1,2013,1,1,2013,Tuesday,Yes,Yes,No,Yes,Yes;

GlobalGeometryRules,UpperLeftCorner,CounterClockWise,World;

Material,
  REFRACTION EXTINCTION OPAQUE HOST MATERIAL,
  Rough,
  0.113,
  0.347,
  913.0,
  836.0,
  0.87,
  0.63,
  0.58;

WindowMaterial:Glazing:RefractionExtinctionMethod,
  DISTINCTIVE REFRACTION EXTINCTION GLASS,
  0.0067,
  1.47,
  19.3,
  1.61,
  8.7,
  0.017,
  0.811,
  1.23,
  0.91,
  Yes;

Construction,
  REFRACTION EXTINCTION OPAQUE HOST CONSTRUCTION,
  REFRACTION EXTINCTION OPAQUE HOST MATERIAL;

Construction,
  DISTINCTIVE REFRACTION EXTINCTION WINDOW CONSTRUCTION,
  DISTINCTIVE REFRACTION EXTINCTION GLASS;

Zone,REFRACTION EXTINCTION TEST ZONE,0,0,0,0,1,1,3,48,16;

BuildingSurface:Detailed,
  REFRACTION EXTINCTION TEST FLOOR,
  Floor,
  REFRACTION EXTINCTION OPAQUE HOST CONSTRUCTION,
  REFRACTION EXTINCTION TEST ZONE,
  ,
  Ground,
  ,
  NoSun,
  NoWind,
  1.0,
  4,
  4,4,0,
  4,0,0,
  0,0,0,
  0,4,0;

BuildingSurface:Detailed,
  REFRACTION EXTINCTION TEST ROOF,
  Roof,
  REFRACTION EXTINCTION OPAQUE HOST CONSTRUCTION,
  REFRACTION EXTINCTION TEST ZONE,
  ,
  Outdoors,
  ,
  SunExposed,
  WindExposed,
  0.0,
  4,
  0,4,3,
  0,0,3,
  4,0,3,
  4,4,3;

BuildingSurface:Detailed,
  REFRACTION EXTINCTION TEST WEST WALL,
  Wall,
  REFRACTION EXTINCTION OPAQUE HOST CONSTRUCTION,
  REFRACTION EXTINCTION TEST ZONE,
  ,
  Outdoors,
  ,
  SunExposed,
  WindExposed,
  0.5,
  4,
  0,4,3,
  0,4,0,
  0,0,0,
  0,0,3;

BuildingSurface:Detailed,
  REFRACTION EXTINCTION TEST EAST WALL,
  Wall,
  REFRACTION EXTINCTION OPAQUE HOST CONSTRUCTION,
  REFRACTION EXTINCTION TEST ZONE,
  ,
  Outdoors,
  ,
  SunExposed,
  WindExposed,
  0.5,
  4,
  4,0,3,
  4,0,0,
  4,4,0,
  4,4,3;

BuildingSurface:Detailed,
  DISTINCTIVE REFRACTION EXTINCTION HOST WALL,
  Wall,
  REFRACTION EXTINCTION OPAQUE HOST CONSTRUCTION,
  REFRACTION EXTINCTION TEST ZONE,
  ,
  Outdoors,
  ,
  SunExposed,
  WindExposed,
  0.5,
  4,
  0,0,3,
  0,0,0,
  4,0,0,
  4,0,3;

BuildingSurface:Detailed,
  REFRACTION EXTINCTION TEST NORTH WALL,
  Wall,
  REFRACTION EXTINCTION OPAQUE HOST CONSTRUCTION,
  REFRACTION EXTINCTION TEST ZONE,
  ,
  Outdoors,
  ,
  SunExposed,
  WindExposed,
  0.5,
  4,
  4,4,3,
  4,4,0,
  0,4,0,
  0,4,3;

FenestrationSurface:Detailed,
  DISTINCTIVE REFRACTION EXTINCTION WINDOW,
  Window,
  DISTINCTIVE REFRACTION EXTINCTION WINDOW CONSTRUCTION,
  DISTINCTIVE REFRACTION EXTINCTION HOST WALL,
  ,
  0.5,
  ,
  1.0,
  4,
  1,0,2.5,
  1,0,0.5,
  3,0,0.5,
  3,0,2.5;

Output:Variable,*,Zone Mean Air Temperature,Hourly;

Output:Constructions,Constructions;

Output:Surfaces:List,Details;
