Version,26.1;

Building,
  Schedule Day Hourly Week Daily Year Leap Exact Fixture,
  0.0,
  Suburbs,
  0.04,
  0.4,
  FullExterior,
  25,
  6;

Timestep,4;

GlobalGeometryRules,
  UpperLeftCorner,
  CounterClockWise,
  World;

RunPeriod,
  Schedule Day Hourly Week Daily Year Leap Run Period,
  2,
  28,
  2016,
  3,
  1,
  2016,
  Sunday,
  No,
  No,
  No,
  No,
  No,
  No;

ScheduleTypeLimits,
  Any Number;

Schedule:Day:Hourly,
  Week A Sunday Hourly,
  Any Number,
  101,
  102,
  103,
  104,
  105,
  106,
  107,
  108,
  109,
  110,
  111,
  112,
  113,
  114,
  115,
  116,
  117,
  118,
  119,
  120,
  121,
  122,
  123,
  124;

Schedule:Day:Hourly,
  Week A Monday Hourly,
  Any Number,
  201,
  202,
  203,
  204,
  205,
  206,
  207,
  208,
  209,
  210,
  211,
  212,
  213,
  214,
  215,
  216,
  217,
  218,
  219,
  220,
  221,
  222,
  223,
  224;

Schedule:Day:Hourly,
  Week B Tuesday Hourly,
  Any Number,
  301,
  302,
  303,
  304,
  305,
  306,
  307,
  308,
  309,
  310,
  311,
  312,
  313,
  314,
  315,
  316,
  317,
  318,
  319,
  320,
  321,
  322,
  323,
  324;

Schedule:Week:Daily,
  Week A Daily,
  Week A Sunday Hourly,
  Week A Monday Hourly,
  Week A Sunday Hourly,
  Week A Sunday Hourly,
  Week A Sunday Hourly,
  Week A Sunday Hourly,
  Week A Sunday Hourly,
  Week A Sunday Hourly,
  Week A Sunday Hourly,
  Week A Sunday Hourly,
  Week A Sunday Hourly,
  Week A Sunday Hourly;

Schedule:Week:Daily,
  Week B Daily,
  Week B Tuesday Hourly,
  Week B Tuesday Hourly,
  Week B Tuesday Hourly,
  Week B Tuesday Hourly,
  Week B Tuesday Hourly,
  Week B Tuesday Hourly,
  Week B Tuesday Hourly,
  Week B Tuesday Hourly,
  Week B Tuesday Hourly,
  Week B Tuesday Hourly,
  Week B Tuesday Hourly,
  Week B Tuesday Hourly;

Schedule:Year,
  Year Leap Schedule,
  Any Number,
  Week A Daily,
  1,
  1,
  2,
  28,
  Week B Daily,
  3,
  1,
  12,
  31;

Output:Variable,
  YEAR LEAP SCHEDULE,
  Schedule Value,
  Hourly;
