LOCATION,EPW Holiday Fixed Date Policy Fixture,CO,USA,Synthetic,999999,39.74,-105.18,-7.0,1829.0
DESIGN CONDITIONS,0
TYPICAL/EXTREME PERIODS,0
GROUND TEMPERATURES,0
HOLIDAYS/DAYLIGHT SAVINGS,Yes,0,0,1,EPW Leap Holiday,2/29
COMMENTS 1,Deterministic three-day leap-year weather fixture for EPW holiday use-policy conformance
COMMENTS 2,One fixed EPW holiday is declared on 2/29; weather values remain constant
DATA PERIODS,1,1,Data,Sunday,2/28,3/1
2016,2,28,1,60,?9?9?9?9E0?9?9?9?9?9?9?9?9?9?9?9?9?9?9?9*9*9?9*9*9,10.0,5.0,50,80600,0,0,250,0,0,0,0,0,0,0,180,2.0,5,5,20.0,7777,9,999999999,0,0.0000,0,0,0.000,0.0,0.0
2016,2,28,2,60,?9?9?9?9E0?9?9?9?9?9?9?9?9?9?9?9?9?9?9?9*9*9?9*9*9,10.0,5.0,50,80600,0,0,250,0,0,0,0,0,0,0,180,2.0,5,5,20.0,7777,9,999999999,0,0.0000,0,0,0.000,0.0,0.0
2016,2,28,3,60,?9?9?9?9E0?9?9?9?9?9?9?9?9?9?9?9?9?9?9?9*9*9?9*9*9,10.0,5.0,50,80600,0,0,250,0,0,0,0,0,0,0,180,2.0,5,5,20.0,7777,9,999999999,0,0.0000,0,0,0.000,0.0,0.0
2016,2,28,4,60,?9?9?9?9E0?9?9?9?9?9?9?9?9?9?9?9?9?9?9?9*9*9?9*9*9,10.0,5.0,50,80600,0,0,250,0,0,0,0,0,0,0,180,2.0,5,5,20.0,7777,9,999999999,0,0.0000,0,0,0.000,0.0,0.0
2016,2,28,5,60,?9?9?9?9E0?9?9?9?9?9?9?9?9?9?9?9?9?9?9?9*9*9?9*9*9,10.0,5.0,50,80600,0,0,250,0,0,0,0,0,0,0,180,2.0,5,5,20.0,7777,9,999999999,0,0.0000,0,0,0.000,0.0,0.0
2016,2,28,6,60,?9?9?9?9E0?9?9?9?9?9?9?9?9?9?9?9?9?9?9?9*9*9?9*9*9,10.0,5.0,50,80600,0,0,250,0,0,0,0,0,0,0,180,2.0,5,5,20.0,7777,9,999999999,0,0.0000,0,0,0.000,0.0,0.0
2016,2,28,7,60,?9?9?9?9E0?9?9?9?9?9?9?9?9?9?9?9?9?9?9?9*9*9?9*9*9,10.0,5.0,50,80600,0,0,250,0,0,0,0,0,0,0,180,2.0,5,5,20.0,7777,9,999999999,0,0.0000,0,0,0.000,0.0,0.0
2016,2,28,8,60,?9?9?9?9E0?9?9?9?9?9?9?9?9?9?9?9?9?9?9?9*9*9?9*9*9,10.0,5.0,50,80600,0,0,250,0,0,0,0,0,0,0,180,2.0,5,5,20.0,7777,9,999999999,0,0.0000,0,0,0.000,0.0,0.0
2016,2,28,9,60,?9?9?9?9E0?9?9?9?9?9?9?9?9?9?9?9?9?9?9?9*9*9?9*9*9,10.0,5.0,50,80600,0,0,250,0,0,0,0,0,0,0,180,2.0,5,5,20.0,7777,9,999999999,0,0.0000,0,0,0.000,0.0,0.0
2016,2,28,10,60,?9?9?9?9E0?9?9?9?9?9?9?9?9?9?9?9?9?9?9?9*9*9?9*9*9,10.0,5.0,50,80600,0,0,250,0,0,0,0,0,0,0,180,2.0,5,5,20.0,7777,9,999999999,0,0.0000,0,0,0.000,0.0,0.0
2016,2,28,11,60,?9?9?9?9E0?9?9?9?9?9?9?9?9?9?9?9?9?9?9?9*9*9?9*9*9,10.0,5.0,50,80600,0,0,250,0,0,0,0,0,0,0,180,2.0,5,5,20.0,7777,9,999999999,0,0.0000,0,0,0.000,0.0,0.0
2016,2,28,12,60,?9?9?9?9E0?9?9?9?9?9?9?9?9?9?9?9?9?9?9?9*9*9?9*9*9,10.0,5.0,50,80600,0,0,250,0,0,0,0,0,0,0,180,2.0,5,5,20.0,7777,9,999999999,0,0.0000,0,0,0.000,0.0,0.0
2016,2,28,13,60,?9?9?9?9E0?9?9?9?9?9?9?9?9?9?9?9?9?9?9?9*9*9?9*9*9,10.0,5.0,50,80600,0,0,250,0,0,0,0,0,0,0,180,2.0,5,5,20.0,7777,9,999999999,0,0.0000,0,0,0.000,0.0,0.0
2016,2,28,14,60,?9?9?9?9E0?9?9?9?9?9?9?9?9?9?9?9?9?9?9?9*9*9?9*9*9,10.0,5.0,50,80600,0,0,250,0,0,0,0,0,0,0,180,2.0,5,5,20.0,7777,9,999999999,0,0.0000,0,0,0.000,0.0,0.0
2016,2,28,15,60,?9?9?9?9E0?9?9?9?9?9?9?9?9?9?9?9?9?9?9?9*9*9?9*9*9,10.0,5.0,50,80600,0,0,250,0,0,0,0,0,0,0,180,2.0,5,5,20.0,7777,9,999999999,0,0.0000,0,0,0.000,0.0,0.0
2016,2,28,16,60,?9?9?9?9E0?9?9?9?9?9?9?9?9?9?9?9?9?9?9?9*9*9?9*9*9,10.0,5.0,50,80600,0,0,250,0,0,0,0,0,0,0,180,2.0,5,5,20.0,7777,9,999999999,0,0.0000,0,0,0.000,0.0,0.0
2016,2,28,17,60,?9?9?9?9E0?9?9?9?9?9?9?9?9?9?9?9?9?9?9?9*9*9?9*9*9,10.0,5.0,50,80600,0,0,250,0,0,0,0,0,0,0,180,2.0,5,5,20.0,7777,9,999999999,0,0.0000,0,0,0.000,0.0,0.0
2016,2,28,18,60,?9?9?9?9E0?9?9?9?9?9?9?9?9?9?9?9?9?9?9?9*9*9?9*9*9,10.0,5.0,50,80600,0,0,250,0,0,0,0,0,0,0,180,2.0,5,5,20.0,7777,9,999999999,0,0.0000,0,0,0.000,0.0,0.0
2016,2,28,19,60,?9?9?9?9E0?9?9?9?9?9?9?9?9?9?9?9?9?9?9?9*9*9?9*9*9,10.0,5.0,50,80600,0,0,250,0,0,0,0,0,0,0,180,2.0,5,5,20.0,7777,9,999999999,0,0.0000,0,0,0.000,0.0,0.0
2016,2,28,20,60,?9?9?9?9E0?9?9?9?9?9?9?9?9?9?9?9?9?9?9?9*9*9?9*9*9,10.0,5.0,50,80600,0,0,250,0,0,0,0,0,0,0,180,2.0,5,5,20.0,7777,9,999999999,0,0.0000,0,0,0.000,0.0,0.0
2016,2,28,21,60,?9?9?9?9E0?9?9?9?9?9?9?9?9?9?9?9?9?9?9?9*9*9?9*9*9,10.0,5.0,50,80600,0,0,250,0,0,0,0,0,0,0,180,2.0,5,5,20.0,7777,9,999999999,0,0.0000,0,0,0.000,0.0,0.0
2016,2,28,22,60,?9?9?9?9E0?9?9?9?9?9?9?9?9?9?9?9?9?9?9?9*9*9?9*9*9,10.0,5.0,50,80600,0,0,250,0,0,0,0,0,0,0,180,2.0,5,5,20.0,7777,9,999999999,0,0.0000,0,0,0.000,0.0,0.0
2016,2,28,23,60,?9?9?9?9E0?9?9?9?9?9?9?9?9?9?9?9?9?9?9?9*9*9?9*9*9,10.0,5.0,50,80600,0,0,250,0,0,0,0,0,0,0,180,2.0,5,5,20.0,7777,9,999999999,0,0.0000,0,0,0.000,0.0,0.0
2016,2,28,24,60,?9?9?9?9E0?9?9?9?9?9?9?9?9?9?9?9?9?9?9?9*9*9?9*9*9,10.0,5.0,50,80600,0,0,250,0,0,0,0,0,0,0,180,2.0,5,5,20.0,7777,9,999999999,0,0.0000,0,0,0.000,0.0,0.0
2016,2,29,1,60,?9?9?9?9E0?9?9?9?9?9?9?9?9?9?9?9?9?9?9?9*9*9?9*9*9,10.0,5.0,50,80600,0,0,250,0,0,0,0,0,0,0,180,2.0,5,5,20.0,7777,9,999999999,0,0.0000,0,0,0.000,0.0,0.0
2016,2,29,2,60,?9?9?9?9E0?9?9?9?9?9?9?9?9?9?9?9?9?9?9?9*9*9?9*9*9,10.0,5.0,50,80600,0,0,250,0,0,0,0,0,0,0,180,2.0,5,5,20.0,7777,9,999999999,0,0.0000,0,0,0.000,0.0,0.0
2016,2,29,3,60,?9?9?9?9E0?9?9?9?9?9?9?9?9?9?9?9?9?9?9?9*9*9?9*9*9,10.0,5.0,50,80600,0,0,250,0,0,0,0,0,0,0,180,2.0,5,5,20.0,7777,9,999999999,0,0.0000,0,0,0.000,0.0,0.0
2016,2,29,4,60,?9?9?9?9E0?9?9?9?9?9?9?9?9?9?9?9?9?9?9?9*9*9?9*9*9,10.0,5.0,50,80600,0,0,250,0,0,0,0,0,0,0,180,2.0,5,5,20.0,7777,9,999999999,0,0.0000,0,0,0.000,0.0,0.0
2016,2,29,5,60,?9?9?9?9E0?9?9?9?9?9?9?9?9?9?9?9?9?9?9?9*9*9?9*9*9,10.0,5.0,50,80600,0,0,250,0,0,0,0,0,0,0,180,2.0,5,5,20.0,7777,9,999999999,0,0.0000,0,0,0.000,0.0,0.0
2016,2,29,6,60,?9?9?9?9E0?9?9?9?9?9?9?9?9?9?9?9?9?9?9?9*9*9?9*9*9,10.0,5.0,50,80600,0,0,250,0,0,0,0,0,0,0,180,2.0,5,5,20.0,7777,9,999999999,0,0.0000,0,0,0.000,0.0,0.0
2016,2,29,7,60,?9?9?9?9E0?9?9?9?9?9?9?9?9?9?9?9?9?9?9?9*9*9?9*9*9,10.0,5.0,50,80600,0,0,250,0,0,0,0,0,0,0,180,2.0,5,5,20.0,7777,9,999999999,0,0.0000,0,0,0.000,0.0,0.0
2016,2,29,8,60,?9?9?9?9E0?9?9?9?9?9?9?9?9?9?9?9?9?9?9?9*9*9?9*9*9,10.0,5.0,50,80600,0,0,250,0,0,0,0,0,0,0,180,2.0,5,5,20.0,7777,9,999999999,0,0.0000,0,0,0.000,0.0,0.0
2016,2,29,9,60,?9?9?9?9E0?9?9?9?9?9?9?9?9?9?9?9?9?9?9?9*9*9?9*9*9,10.0,5.0,50,80600,0,0,250,0,0,0,0,0,0,0,180,2.0,5,5,20.0,7777,9,999999999,0,0.0000,0,0,0.000,0.0,0.0
2016,2,29,10,60,?9?9?9?9E0?9?9?9?9?9?9?9?9?9?9?9?9?9?9?9*9*9?9*9*9,10.0,5.0,50,80600,0,0,250,0,0,0,0,0,0,0,180,2.0,5,5,20.0,7777,9,999999999,0,0.0000,0,0,0.000,0.0,0.0
2016,2,29,11,60,?9?9?9?9E0?9?9?9?9?9?9?9?9?9?9?9?9?9?9?9*9*9?9*9*9,10.0,5.0,50,80600,0,0,250,0,0,0,0,0,0,0,180,2.0,5,5,20.0,7777,9,999999999,0,0.0000,0,0,0.000,0.0,0.0
2016,2,29,12,60,?9?9?9?9E0?9?9?9?9?9?9?9?9?9?9?9?9?9?9?9*9*9?9*9*9,10.0,5.0,50,80600,0,0,250,0,0,0,0,0,0,0,180,2.0,5,5,20.0,7777,9,999999999,0,0.0000,0,0,0.000,0.0,0.0
2016,2,29,13,60,?9?9?9?9E0?9?9?9?9?9?9?9?9?9?9?9?9?9?9?9*9*9?9*9*9,10.0,5.0,50,80600,0,0,250,0,0,0,0,0,0,0,180,2.0,5,5,20.0,7777,9,999999999,0,0.0000,0,0,0.000,0.0,0.0
2016,2,29,14,60,?9?9?9?9E0?9?9?9?9?9?9?9?9?9?9?9?9?9?9?9*9*9?9*9*9,10.0,5.0,50,80600,0,0,250,0,0,0,0,0,0,0,180,2.0,5,5,20.0,7777,9,999999999,0,0.0000,0,0,0.000,0.0,0.0
2016,2,29,15,60,?9?9?9?9E0?9?9?9?9?9?9?9?9?9?9?9?9?9?9?9*9*9?9*9*9,10.0,5.0,50,80600,0,0,250,0,0,0,0,0,0,0,180,2.0,5,5,20.0,7777,9,999999999,0,0.0000,0,0,0.000,0.0,0.0
2016,2,29,16,60,?9?9?9?9E0?9?9?9?9?9?9?9?9?9?9?9?9?9?9?9*9*9?9*9*9,10.0,5.0,50,80600,0,0,250,0,0,0,0,0,0,0,180,2.0,5,5,20.0,7777,9,999999999,0,0.0000,0,0,0.000,0.0,0.0
2016,2,29,17,60,?9?9?9?9E0?9?9?9?9?9?9?9?9?9?9?9?9?9?9?9*9*9?9*9*9,10.0,5.0,50,80600,0,0,250,0,0,0,0,0,0,0,180,2.0,5,5,20.0,7777,9,999999999,0,0.0000,0,0,0.000,0.0,0.0
2016,2,29,18,60,?9?9?9?9E0?9?9?9?9?9?9?9?9?9?9?9?9?9?9?9*9*9?9*9*9,10.0,5.0,50,80600,0,0,250,0,0,0,0,0,0,0,180,2.0,5,5,20.0,7777,9,999999999,0,0.0000,0,0,0.000,0.0,0.0
2016,2,29,19,60,?9?9?9?9E0?9?9?9?9?9?9?9?9?9?9?9?9?9?9?9*9*9?9*9*9,10.0,5.0,50,80600,0,0,250,0,0,0,0,0,0,0,180,2.0,5,5,20.0,7777,9,999999999,0,0.0000,0,0,0.000,0.0,0.0
2016,2,29,20,60,?9?9?9?9E0?9?9?9?9?9?9?9?9?9?9?9?9?9?9?9*9*9?9*9*9,10.0,5.0,50,80600,0,0,250,0,0,0,0,0,0,0,180,2.0,5,5,20.0,7777,9,999999999,0,0.0000,0,0,0.000,0.0,0.0
2016,2,29,21,60,?9?9?9?9E0?9?9?9?9?9?9?9?9?9?9?9?9?9?9?9*9*9?9*9*9,10.0,5.0,50,80600,0,0,250,0,0,0,0,0,0,0,180,2.0,5,5,20.0,7777,9,999999999,0,0.0000,0,0,0.000,0.0,0.0
2016,2,29,22,60,?9?9?9?9E0?9?9?9?9?9?9?9?9?9?9?9?9?9?9?9*9*9?9*9*9,10.0,5.0,50,80600,0,0,250,0,0,0,0,0,0,0,180,2.0,5,5,20.0,7777,9,999999999,0,0.0000,0,0,0.000,0.0,0.0
2016,2,29,23,60,?9?9?9?9E0?9?9?9?9?9?9?9?9?9?9?9?9?9?9?9*9*9?9*9*9,10.0,5.0,50,80600,0,0,250,0,0,0,0,0,0,0,180,2.0,5,5,20.0,7777,9,999999999,0,0.0000,0,0,0.000,0.0,0.0
2016,2,29,24,60,?9?9?9?9E0?9?9?9?9?9?9?9?9?9?9?9?9?9?9?9*9*9?9*9*9,10.0,5.0,50,80600,0,0,250,0,0,0,0,0,0,0,180,2.0,5,5,20.0,7777,9,999999999,0,0.0000,0,0,0.000,0.0,0.0
2016,3,1,1,60,?9?9?9?9E0?9?9?9?9?9?9?9?9?9?9?9?9?9?9?9*9*9?9*9*9,10.0,5.0,50,80600,0,0,250,0,0,0,0,0,0,0,180,2.0,5,5,20.0,7777,9,999999999,0,0.0000,0,0,0.000,0.0,0.0
2016,3,1,2,60,?9?9?9?9E0?9?9?9?9?9?9?9?9?9?9?9?9?9?9?9*9*9?9*9*9,10.0,5.0,50,80600,0,0,250,0,0,0,0,0,0,0,180,2.0,5,5,20.0,7777,9,999999999,0,0.0000,0,0,0.000,0.0,0.0
2016,3,1,3,60,?9?9?9?9E0?9?9?9?9?9?9?9?9?9?9?9?9?9?9?9*9*9?9*9*9,10.0,5.0,50,80600,0,0,250,0,0,0,0,0,0,0,180,2.0,5,5,20.0,7777,9,999999999,0,0.0000,0,0,0.000,0.0,0.0
2016,3,1,4,60,?9?9?9?9E0?9?9?9?9?9?9?9?9?9?9?9?9?9?9?9*9*9?9*9*9,10.0,5.0,50,80600,0,0,250,0,0,0,0,0,0,0,180,2.0,5,5,20.0,7777,9,999999999,0,0.0000,0,0,0.000,0.0,0.0
2016,3,1,5,60,?9?9?9?9E0?9?9?9?9?9?9?9?9?9?9?9?9?9?9?9*9*9?9*9*9,10.0,5.0,50,80600,0,0,250,0,0,0,0,0,0,0,180,2.0,5,5,20.0,7777,9,999999999,0,0.0000,0,0,0.000,0.0,0.0
2016,3,1,6,60,?9?9?9?9E0?9?9?9?9?9?9?9?9?9?9?9?9?9?9?9*9*9?9*9*9,10.0,5.0,50,80600,0,0,250,0,0,0,0,0,0,0,180,2.0,5,5,20.0,7777,9,999999999,0,0.0000,0,0,0.000,0.0,0.0
2016,3,1,7,60,?9?9?9?9E0?9?9?9?9?9?9?9?9?9?9?9?9?9?9?9*9*9?9*9*9,10.0,5.0,50,80600,0,0,250,0,0,0,0,0,0,0,180,2.0,5,5,20.0,7777,9,999999999,0,0.0000,0,0,0.000,0.0,0.0
2016,3,1,8,60,?9?9?9?9E0?9?9?9?9?9?9?9?9?9?9?9?9?9?9?9*9*9?9*9*9,10.0,5.0,50,80600,0,0,250,0,0,0,0,0,0,0,180,2.0,5,5,20.0,7777,9,999999999,0,0.0000,0,0,0.000,0.0,0.0
2016,3,1,9,60,?9?9?9?9E0?9?9?9?9?9?9?9?9?9?9?9?9?9?9?9*9*9?9*9*9,10.0,5.0,50,80600,0,0,250,0,0,0,0,0,0,0,180,2.0,5,5,20.0,7777,9,999999999,0,0.0000,0,0,0.000,0.0,0.0
2016,3,1,10,60,?9?9?9?9E0?9?9?9?9?9?9?9?9?9?9?9?9?9?9?9*9*9?9*9*9,10.0,5.0,50,80600,0,0,250,0,0,0,0,0,0,0,180,2.0,5,5,20.0,7777,9,999999999,0,0.0000,0,0,0.000,0.0,0.0
2016,3,1,11,60,?9?9?9?9E0?9?9?9?9?9?9?9?9?9?9?9?9?9?9?9*9*9?9*9*9,10.0,5.0,50,80600,0,0,250,0,0,0,0,0,0,0,180,2.0,5,5,20.0,7777,9,999999999,0,0.0000,0,0,0.000,0.0,0.0
2016,3,1,12,60,?9?9?9?9E0?9?9?9?9?9?9?9?9?9?9?9?9?9?9?9*9*9?9*9*9,10.0,5.0,50,80600,0,0,250,0,0,0,0,0,0,0,180,2.0,5,5,20.0,7777,9,999999999,0,0.0000,0,0,0.000,0.0,0.0
2016,3,1,13,60,?9?9?9?9E0?9?9?9?9?9?9?9?9?9?9?9?9?9?9?9*9*9?9*9*9,10.0,5.0,50,80600,0,0,250,0,0,0,0,0,0,0,180,2.0,5,5,20.0,7777,9,999999999,0,0.0000,0,0,0.000,0.0,0.0
2016,3,1,14,60,?9?9?9?9E0?9?9?9?9?9?9?9?9?9?9?9?9?9?9?9*9*9?9*9*9,10.0,5.0,50,80600,0,0,250,0,0,0,0,0,0,0,180,2.0,5,5,20.0,7777,9,999999999,0,0.0000,0,0,0.000,0.0,0.0
2016,3,1,15,60,?9?9?9?9E0?9?9?9?9?9?9?9?9?9?9?9?9?9?9?9*9*9?9*9*9,10.0,5.0,50,80600,0,0,250,0,0,0,0,0,0,0,180,2.0,5,5,20.0,7777,9,999999999,0,0.0000,0,0,0.000,0.0,0.0
2016,3,1,16,60,?9?9?9?9E0?9?9?9?9?9?9?9?9?9?9?9?9?9?9?9*9*9?9*9*9,10.0,5.0,50,80600,0,0,250,0,0,0,0,0,0,0,180,2.0,5,5,20.0,7777,9,999999999,0,0.0000,0,0,0.000,0.0,0.0
2016,3,1,17,60,?9?9?9?9E0?9?9?9?9?9?9?9?9?9?9?9?9?9?9?9*9*9?9*9*9,10.0,5.0,50,80600,0,0,250,0,0,0,0,0,0,0,180,2.0,5,5,20.0,7777,9,999999999,0,0.0000,0,0,0.000,0.0,0.0
2016,3,1,18,60,?9?9?9?9E0?9?9?9?9?9?9?9?9?9?9?9?9?9?9?9*9*9?9*9*9,10.0,5.0,50,80600,0,0,250,0,0,0,0,0,0,0,180,2.0,5,5,20.0,7777,9,999999999,0,0.0000,0,0,0.000,0.0,0.0
2016,3,1,19,60,?9?9?9?9E0?9?9?9?9?9?9?9?9?9?9?9?9?9?9?9*9*9?9*9*9,10.0,5.0,50,80600,0,0,250,0,0,0,0,0,0,0,180,2.0,5,5,20.0,7777,9,999999999,0,0.0000,0,0,0.000,0.0,0.0
2016,3,1,20,60,?9?9?9?9E0?9?9?9?9?9?9?9?9?9?9?9?9?9?9?9*9*9?9*9*9,10.0,5.0,50,80600,0,0,250,0,0,0,0,0,0,0,180,2.0,5,5,20.0,7777,9,999999999,0,0.0000,0,0,0.000,0.0,0.0
2016,3,1,21,60,?9?9?9?9E0?9?9?9?9?9?9?9?9?9?9?9?9?9?9?9*9*9?9*9*9,10.0,5.0,50,80600,0,0,250,0,0,0,0,0,0,0,180,2.0,5,5,20.0,7777,9,999999999,0,0.0000,0,0,0.000,0.0,0.0
2016,3,1,22,60,?9?9?9?9E0?9?9?9?9?9?9?9?9?9?9?9?9?9?9?9*9*9?9*9*9,10.0,5.0,50,80600,0,0,250,0,0,0,0,0,0,0,180,2.0,5,5,20.0,7777,9,999999999,0,0.0000,0,0,0.000,0.0,0.0
2016,3,1,23,60,?9?9?9?9E0?9?9?9?9?9?9?9?9?9?9?9?9?9?9?9*9*9?9*9*9,10.0,5.0,50,80600,0,0,250,0,0,0,0,0,0,0,180,2.0,5,5,20.0,7777,9,999999999,0,0.0000,0,0,0.000,0.0,0.0
2016,3,1,24,60,?9?9?9?9E0?9?9?9?9?9?9?9?9?9?9?9?9?9?9?9*9*9?9*9*9,10.0,5.0,50,80600,0,0,250,0,0,0,0,0,0,0,180,2.0,5,5,20.0,7777,9,999999999,0,0.0000,0,0,0.000,0.0,0.0
