Version,26.1;

Building,
  EPW Holiday Fixed Date Policy Fixture,
  0.0,
  Suburbs,
  0.04,
  0.4,
  FullExterior,
  25,
  6;

Timestep,4;

GlobalGeometryRules,
  UpperLeftCorner,
  CounterClockWise,
  World;

RunPeriod,
  EPW Holiday Fixed Date Run Period,
  2,
  28,
  2016,
  3,
  1,
  2016,
  Sunday,
  Yes, !- Use Weather File Holidays and Special Days
  No,  !- Use Weather File Daylight Saving Period
  No,  !- Apply Weekend Holiday Rule
  No,  !- Use Weather File Rain Indicators
  No,  !- Use Weather File Snow Indicators
  No;  !- Treat Weather as Actual

Output:Variable,
  Environment,
  Site Day Type Index,
  Hourly;
