Version,26.1;

Building,
  Schedule Day List Modes Exact Fixture,
  0.0,
  Suburbs,
  0.04,
  0.4,
  FullExterior,
  25,
  6;

Timestep,4;

GlobalGeometryRules,
  UpperLeftCorner,
  CounterClockWise,
  World;

RunPeriod,
  Schedule Day List Modes Run Period,
  1,
  1,
  2032,
  1,
  3,
  2032,
  Thursday,
  No,
  No,
  No,
  No,
  No,
  No;

ScheduleTypeLimits,
  Any Number;

Schedule:Day:List,
  List Default No Day,
  Any Number,
  ,
  20,
  10,
  70,
  160,
  175,
  175,
  175,
  175,
  175,
  175,
  175,
  175,
  175,
  175,
  175,
  175,
  175,
  175,
  175,
  175,
  175,
  175,
  175,
  175,
  175,
  175,
  175,
  175,
  175,
  175,
  175,
  175,
  175,
  175,
  175,
  175,
  175,
  175,
  175,
  175,
  175,
  175,
  175,
  175,
  175,
  175,
  175,
  175,
  175,
  175,
  175,
  175,
  175,
  175,
  175,
  175,
  175,
  175,
  175,
  175,
  175,
  175,
  175,
  175,
  175,
  175,
  175,
  175,
  175,
  175,
  175,
  175,
  175;

Schedule:Day:List,
  List Average Day,
  Any Number,
  Average,
  20,
  10,
  70,
  160,
  175,
  175,
  175,
  175,
  175,
  175,
  175,
  175,
  175,
  175,
  175,
  175,
  175,
  175,
  175,
  175,
  175,
  175,
  175,
  175,
  175,
  175,
  175,
  175,
  175,
  175,
  175,
  175,
  175,
  175,
  175,
  175,
  175,
  175,
  175,
  175,
  175,
  175,
  175,
  175,
  175,
  175,
  175,
  175,
  175,
  175,
  175,
  175,
  175,
  175,
  175,
  175,
  175,
  175,
  175,
  175,
  175,
  175,
  175,
  175,
  175,
  175,
  175,
  175,
  175,
  175,
  175,
  175,
  175;

Schedule:Day:List,
  List Linear Day,
  Any Number,
  Linear,
  20,
  10,
  70,
  160,
  175,
  175,
  175,
  175,
  175,
  175,
  175,
  175,
  175,
  175,
  175,
  175,
  175,
  175,
  175,
  175,
  175,
  175,
  175,
  175,
  175,
  175,
  175,
  175,
  175,
  175,
  175,
  175,
  175,
  175,
  175,
  175,
  175,
  175,
  175,
  175,
  175,
  175,
  175,
  175,
  175,
  175,
  175,
  175,
  175,
  175,
  175,
  175,
  175,
  175,
  175,
  175,
  175,
  175,
  175,
  175,
  175,
  175,
  175,
  175,
  175,
  175,
  175,
  175,
  175,
  175,
  175,
  175,
  175;

Schedule:Week:Daily,
  List Modes Week,
  List Default No Day,
  List Default No Day,
  List Default No Day,
  List Default No Day,
  List Default No Day,
  List Average Day,
  List Linear Day,
  List Default No Day,
  List Default No Day,
  List Default No Day,
  List Default No Day,
  List Default No Day;

Schedule:Year,
  Day List Modes Schedule,
  Any Number,
  List Modes Week,
  1,
  1,
  12,
  31;

Output:Variable,
  DAY LIST MODES SCHEDULE,
  Schedule Value,
  Timestep;
