! CON-01 pinned case B-CAPACITY-24H; patches and original hashes are in metadata.json.
Version,
  26.1;

SimulationControl,
  No,
  No,
  No,
  No,
  Yes,
  No,
  1;

Building,
  Rusted EnergyPlus IdealLoads Flow And Capacity Limit Diagnostic,
  0.0,
  Suburbs,
  0.04,
  0.4,
  FullExterior,
  25,
  6;

Timestep,
  4;

RunPeriod,
  Run Period 1,
  1,
  1,
  2013,
  1,
  1,
  2013,
  Tuesday,
  Yes,
  Yes,
  No,
  Yes,
  Yes;

Site:Location,
  Golden CO USA,
  39.74,
  -105.18,
  -7.0,
  1829.0;

GlobalGeometryRules,
  UpperLeftCorner,
  CounterClockWise,
  World;

ScheduleTypeLimits,
  Control Type,
  0,
  4,
  DISCRETE;

ScheduleTypeLimits,
  Temperature,
  -60,
  200,
  CONTINUOUS;

ScheduleTypeLimits,
  Fraction,
  0,
  1,
  CONTINUOUS;

Schedule:Constant,
  Zone Control Type Schedule,
  Control Type,
  4;

Schedule:Constant,
  Heating Setpoint,
  Temperature,
  21;

Schedule:Constant,
  Cooling Setpoint,
  Temperature,
  24;

Schedule:Compact,
  Internal Gain Schedule,
  Fraction,
  Through: 12/31,
  For: AllDays,
  Until: 06:00,
  0.0,
  Until: 18:00,
  1.0,
  Until: 24:00,
  0.0;

Material,
  Mass Layer,
  Rough,
  0.10,
  1.40,
  2200,
  900,
  0.9,
  0.7,
  0.7;

Construction,
  Wall,
  Mass Layer;

Zone,
  ZONE ONE,
  0,
  0,
  0,
  0,
  1,
  1,
  1,
  1;

BuildingSurface:Detailed,
  FLOOR,
  Floor,
  Wall,
  ZONE ONE,
  ,
  Outdoors,
  ,
  NoSun,
  NoWind,
  1.0,
  4,
  0,
  1,
  0,
  1,
  1,
  0,
  1,
  0,
  0,
  0,
  0,
  0;

BuildingSurface:Detailed,
  ROOF,
  Roof,
  Wall,
  ZONE ONE,
  ,
  Outdoors,
  ,
  NoSun,
  NoWind,
  0.0,
  4,
  1,
  0,
  1,
  1,
  1,
  1,
  0,
  1,
  1,
  0,
  0,
  1;

BuildingSurface:Detailed,
  WALL X0,
  Wall,
  Wall,
  ZONE ONE,
  ,
  Outdoors,
  ,
  NoSun,
  NoWind,
  0.5,
  4,
  0,
  0,
  0,
  0,
  1,
  0,
  0,
  1,
  1,
  0,
  0,
  1;

BuildingSurface:Detailed,
  WALL X1,
  Wall,
  Wall,
  ZONE ONE,
  ,
  Outdoors,
  ,
  NoSun,
  NoWind,
  0.5,
  4,
  1,
  0,
  0,
  1,
  0,
  1,
  1,
  1,
  1,
  1,
  1,
  0;

BuildingSurface:Detailed,
  WALL Y0,
  Wall,
  Wall,
  ZONE ONE,
  ,
  Outdoors,
  ,
  NoSun,
  NoWind,
  0.5,
  4,
  0,
  0,
  0,
  0,
  0,
  1,
  1,
  0,
  1,
  1,
  0,
  0;

BuildingSurface:Detailed,
  WALL Y1,
  Wall,
  Wall,
  ZONE ONE,
  ,
  Outdoors,
  ,
  NoSun,
  NoWind,
  0.5,
  4,
  0,
  1,
  0,
  1,
  1,
  0,
  1,
  1,
  1,
  0,
  1,
  1;

OtherEquipment,
  Noon Plug Load,
  None,
  ZONE ONE,
  Internal Gain Schedule,
  EquipmentLevel,
  1000.0,
  ,
  ,
  0.0,
  0.20,
  0.0;

ZoneControl:Thermostat,
  ZONE ONE CONTROLS,
  ZONE ONE,
  Zone Control Type Schedule,
  ThermostatSetpoint:DualSetpoint,
  ZONE ONE SETPOINTS;

ThermostatSetpoint:DualSetpoint,
  ZONE ONE SETPOINTS,
  Heating Setpoint,
  Cooling Setpoint;

ZoneHVAC:EquipmentConnections,
  ZONE ONE,
  ZONE ONE EQUIPMENT,
  ZONE ONE INLETS,
  ,
  ZONE ONE AIR NODE,
  ZONE ONE RETURN;

ZoneHVAC:EquipmentList,
  ZONE ONE EQUIPMENT,
  SequentialLoad,
  ZoneHVAC:IdealLoadsAirSystem,
  ZONE ONE IDEAL LOADS,
  1,
  1,
  ,
  ;

ZoneHVAC:IdealLoadsAirSystem,
  ZONE ONE IDEAL LOADS,
  CON-01 System Availability,
  ZONE ONE INLETS,
  ,
  ,
  50,
  13,
  0.0156,
  0.0077,
  LimitCapacity,
  ,
  120,
  LimitCapacity,
  ,
  120,
  ,
  ,
  None,
  0.7,
  None,
  ,
  ,
  None,
  NoEconomizer,
  None,
  0.7,
  0.65,
  ,
  ,
  DistrictHeatingWater,
  ,
  DistrictCooling;

NodeList,
  ZONE ONE INLETS,
  ZONE ONE INLET;

Output:VariableDictionary,
  Regular;

HeatBalanceAlgorithm,
  ConductionTransferFunction,
  200,
  0.1,
  1000;

SurfaceConvectionAlgorithm:Inside,
  TARP;

SurfaceConvectionAlgorithm:Outside,
  DOE-2;

ZoneAirHeatBalanceAlgorithm,
  ThirdOrderBackwardDifference,
  No,
  No;

Schedule:Compact,
  CON-01 System Availability,
  Fraction,
  Through: 12/31,
  For: AllDays,
  Until: 03:00,
  0,
  Until: 24:00,
  1;

Output:Variable,
  ZONE ONE,
  Zone Mean Air Temperature,
  Timestep;

Output:Variable,
  ZONE ONE,
  Zone Air Humidity Ratio,
  Timestep;

Output:Variable,
  Zone Control Type Schedule,
  Schedule Value,
  Timestep;

Output:Variable,
  Heating Setpoint,
  Schedule Value,
  Timestep;

Output:Variable,
  Cooling Setpoint,
  Schedule Value,
  Timestep;

Output:Variable,
  Internal Gain Schedule,
  Schedule Value,
  Timestep;

Output:Variable,
  CON-01 System Availability,
  Schedule Value,
  Timestep;

Output:Variable,
  FLOOR,
  Surface Inside Face Temperature,
  Timestep;

Output:Variable,
  FLOOR,
  Surface Outside Face Temperature,
  Timestep;

Output:Variable,
  FLOOR,
  Surface Inside Face Conduction Heat Transfer Rate,
  Timestep;

Output:Variable,
  FLOOR,
  Surface Inside Face Conduction Heat Transfer Rate per Area,
  Timestep;

Output:Variable,
  FLOOR,
  Surface Outside Face Conduction Heat Transfer Rate,
  Timestep;

Output:Variable,
  FLOOR,
  Surface Outside Face Conduction Heat Transfer Rate per Area,
  Timestep;

Output:Variable,
  FLOOR,
  Surface Heat Storage Rate,
  Timestep;

Output:Variable,
  FLOOR,
  Surface Heat Storage Rate per Area,
  Timestep;

Output:Variable,
  ROOF,
  Surface Inside Face Temperature,
  Timestep;

Output:Variable,
  ROOF,
  Surface Outside Face Temperature,
  Timestep;

Output:Variable,
  ROOF,
  Surface Inside Face Conduction Heat Transfer Rate,
  Timestep;

Output:Variable,
  ROOF,
  Surface Inside Face Conduction Heat Transfer Rate per Area,
  Timestep;

Output:Variable,
  ROOF,
  Surface Outside Face Conduction Heat Transfer Rate,
  Timestep;

Output:Variable,
  ROOF,
  Surface Outside Face Conduction Heat Transfer Rate per Area,
  Timestep;

Output:Variable,
  ROOF,
  Surface Heat Storage Rate,
  Timestep;

Output:Variable,
  ROOF,
  Surface Heat Storage Rate per Area,
  Timestep;

Output:Variable,
  WALL X0,
  Surface Inside Face Temperature,
  Timestep;

Output:Variable,
  WALL X0,
  Surface Outside Face Temperature,
  Timestep;

Output:Variable,
  WALL X0,
  Surface Inside Face Conduction Heat Transfer Rate,
  Timestep;

Output:Variable,
  WALL X0,
  Surface Inside Face Conduction Heat Transfer Rate per Area,
  Timestep;

Output:Variable,
  WALL X0,
  Surface Outside Face Conduction Heat Transfer Rate,
  Timestep;

Output:Variable,
  WALL X0,
  Surface Outside Face Conduction Heat Transfer Rate per Area,
  Timestep;

Output:Variable,
  WALL X0,
  Surface Heat Storage Rate,
  Timestep;

Output:Variable,
  WALL X0,
  Surface Heat Storage Rate per Area,
  Timestep;

Output:Variable,
  WALL X1,
  Surface Inside Face Temperature,
  Timestep;

Output:Variable,
  WALL X1,
  Surface Outside Face Temperature,
  Timestep;

Output:Variable,
  WALL X1,
  Surface Inside Face Conduction Heat Transfer Rate,
  Timestep;

Output:Variable,
  WALL X1,
  Surface Inside Face Conduction Heat Transfer Rate per Area,
  Timestep;

Output:Variable,
  WALL X1,
  Surface Outside Face Conduction Heat Transfer Rate,
  Timestep;

Output:Variable,
  WALL X1,
  Surface Outside Face Conduction Heat Transfer Rate per Area,
  Timestep;

Output:Variable,
  WALL X1,
  Surface Heat Storage Rate,
  Timestep;

Output:Variable,
  WALL X1,
  Surface Heat Storage Rate per Area,
  Timestep;

Output:Variable,
  WALL Y0,
  Surface Inside Face Temperature,
  Timestep;

Output:Variable,
  WALL Y0,
  Surface Outside Face Temperature,
  Timestep;

Output:Variable,
  WALL Y0,
  Surface Inside Face Conduction Heat Transfer Rate,
  Timestep;

Output:Variable,
  WALL Y0,
  Surface Inside Face Conduction Heat Transfer Rate per Area,
  Timestep;

Output:Variable,
  WALL Y0,
  Surface Outside Face Conduction Heat Transfer Rate,
  Timestep;

Output:Variable,
  WALL Y0,
  Surface Outside Face Conduction Heat Transfer Rate per Area,
  Timestep;

Output:Variable,
  WALL Y0,
  Surface Heat Storage Rate,
  Timestep;

Output:Variable,
  WALL Y0,
  Surface Heat Storage Rate per Area,
  Timestep;

Output:Variable,
  WALL Y1,
  Surface Inside Face Temperature,
  Timestep;

Output:Variable,
  WALL Y1,
  Surface Outside Face Temperature,
  Timestep;

Output:Variable,
  WALL Y1,
  Surface Inside Face Conduction Heat Transfer Rate,
  Timestep;

Output:Variable,
  WALL Y1,
  Surface Inside Face Conduction Heat Transfer Rate per Area,
  Timestep;

Output:Variable,
  WALL Y1,
  Surface Outside Face Conduction Heat Transfer Rate,
  Timestep;

Output:Variable,
  WALL Y1,
  Surface Outside Face Conduction Heat Transfer Rate per Area,
  Timestep;

Output:Variable,
  WALL Y1,
  Surface Heat Storage Rate,
  Timestep;

Output:Variable,
  WALL Y1,
  Surface Heat Storage Rate per Area,
  Timestep;

Output:Variable,
  Environment,
  Site Outdoor Air Drybulb Temperature,
  Timestep;

Output:Variable,
  Environment,
  Site Outdoor Air Wetbulb Temperature,
  Timestep;

Output:Variable,
  Environment,
  Site Sky Temperature,
  Timestep;

Output:Variable,
  Environment,
  Site Horizontal Infrared Radiation Rate per Area,
  Timestep;

Output:Variable,
  ZONE ONE,
  Zone Thermostat Heating Setpoint Temperature,
  Timestep;

Output:Variable,
  ZONE ONE,
  Zone Thermostat Cooling Setpoint Temperature,
  Timestep;

Output:Variable,
  ZONE ONE,
  Zone System Predicted Sensible Load to Setpoint Heat Transfer Rate,
  Timestep;

Output:Variable,
  ZONE ONE,
  Zone System Predicted Sensible Load to Heating Setpoint Heat Transfer Rate,
  Timestep;

Output:Variable,
  ZONE ONE,
  Zone System Predicted Sensible Load to Cooling Setpoint Heat Transfer Rate,
  Timestep;

Output:Variable,
  ZONE ONE INLET,
  System Node Temperature,
  Timestep;

Output:Variable,
  ZONE ONE INLET,
  System Node Humidity Ratio,
  Timestep;

Output:Variable,
  ZONE ONE INLET,
  System Node Mass Flow Rate,
  Timestep;

Output:Variable,
  ZONE ONE AIR NODE,
  System Node Temperature,
  Timestep;

Output:Variable,
  ZONE ONE AIR NODE,
  System Node Humidity Ratio,
  Timestep;

Output:Variable,
  ZONE ONE AIR NODE,
  System Node Mass Flow Rate,
  Timestep;

Output:Variable,
  ZONE ONE RETURN,
  System Node Temperature,
  Timestep;

Output:Variable,
  ZONE ONE RETURN,
  System Node Humidity Ratio,
  Timestep;

Output:Variable,
  ZONE ONE RETURN,
  System Node Mass Flow Rate,
  Timestep;

Output:Variable,
  ZONE ONE IDEAL LOADS,
  Zone Ideal Loads Zone Total Heating Rate,
  Timestep;

Output:Variable,
  ZONE ONE IDEAL LOADS,
  Zone Ideal Loads Zone Total Heating Energy,
  Timestep;

Output:Variable,
  ZONE ONE IDEAL LOADS,
  Zone Ideal Loads Zone Sensible Heating Rate,
  Timestep;

Output:Variable,
  ZONE ONE IDEAL LOADS,
  Zone Ideal Loads Zone Sensible Heating Energy,
  Timestep;

Output:Variable,
  ZONE ONE IDEAL LOADS,
  Zone Ideal Loads Zone Latent Heating Rate,
  Timestep;

Output:Variable,
  ZONE ONE IDEAL LOADS,
  Zone Ideal Loads Zone Latent Heating Energy,
  Timestep;

Output:Variable,
  ZONE ONE IDEAL LOADS,
  Zone Ideal Loads Zone Total Cooling Rate,
  Timestep;

Output:Variable,
  ZONE ONE IDEAL LOADS,
  Zone Ideal Loads Zone Total Cooling Energy,
  Timestep;

Output:Variable,
  ZONE ONE IDEAL LOADS,
  Zone Ideal Loads Zone Sensible Cooling Rate,
  Timestep;

Output:Variable,
  ZONE ONE IDEAL LOADS,
  Zone Ideal Loads Zone Sensible Cooling Energy,
  Timestep;

Output:Variable,
  ZONE ONE IDEAL LOADS,
  Zone Ideal Loads Zone Latent Cooling Rate,
  Timestep;

Output:Variable,
  ZONE ONE IDEAL LOADS,
  Zone Ideal Loads Zone Latent Cooling Energy,
  Timestep;

Output:Variable,
  ZONE ONE IDEAL LOADS,
  Zone Ideal Loads Supply Air Total Heating Rate,
  Timestep;

Output:Variable,
  ZONE ONE IDEAL LOADS,
  Zone Ideal Loads Supply Air Total Heating Energy,
  Timestep;

Output:Variable,
  ZONE ONE IDEAL LOADS,
  Zone Ideal Loads Supply Air Sensible Heating Rate,
  Timestep;

Output:Variable,
  ZONE ONE IDEAL LOADS,
  Zone Ideal Loads Supply Air Sensible Heating Energy,
  Timestep;

Output:Variable,
  ZONE ONE IDEAL LOADS,
  Zone Ideal Loads Supply Air Latent Heating Rate,
  Timestep;

Output:Variable,
  ZONE ONE IDEAL LOADS,
  Zone Ideal Loads Supply Air Latent Heating Energy,
  Timestep;

Output:Variable,
  ZONE ONE IDEAL LOADS,
  Zone Ideal Loads Supply Air Total Cooling Rate,
  Timestep;

Output:Variable,
  ZONE ONE IDEAL LOADS,
  Zone Ideal Loads Supply Air Total Cooling Energy,
  Timestep;

Output:Variable,
  ZONE ONE IDEAL LOADS,
  Zone Ideal Loads Supply Air Sensible Cooling Rate,
  Timestep;

Output:Variable,
  ZONE ONE IDEAL LOADS,
  Zone Ideal Loads Supply Air Sensible Cooling Energy,
  Timestep;

Output:Variable,
  ZONE ONE IDEAL LOADS,
  Zone Ideal Loads Supply Air Latent Cooling Rate,
  Timestep;

Output:Variable,
  ZONE ONE IDEAL LOADS,
  Zone Ideal Loads Supply Air Latent Cooling Energy,
  Timestep;

Output:Variable,
  ZONE ONE IDEAL LOADS,
  Zone Ideal Loads Supply Air Total Heating Fuel Energy,
  Timestep;

Output:Variable,
  ZONE ONE IDEAL LOADS,
  Zone Ideal Loads Supply Air Total Cooling Fuel Energy,
  Timestep;

Output:Variable,
  ZONE ONE IDEAL LOADS,
  Zone Ideal Loads Supply Air Mass Flow Rate,
  Timestep;

Output:Variable,
  ZONE ONE IDEAL LOADS,
  Zone Ideal Loads Supply Air Standard Density Volume Flow Rate,
  Timestep;

Output:Variable,
  ZONE ONE IDEAL LOADS,
  Zone Ideal Loads Outdoor Air Mass Flow Rate,
  Timestep;
