Version,26.1;

Building,
  Calendar Special Day Weekend Saturday Exact Fixture,
  0.0,
  Suburbs,
  0.04,
  0.4,
  FullExterior,
  25,
  6;

Timestep,4;

GlobalGeometryRules,
  UpperLeftCorner,
  CounterClockWise,
  World;

RunPeriod,
  Special Day Weekend Saturday Run Period,
  2,
  27,
  2016,
  2,
  29,
  2016,
  Saturday,
  No,  !- Use Weather File Holidays and Special Days
  No,  !- Use Weather File Daylight Saving Period
  Yes, !- Apply Weekend Holiday Rule
  No,  !- Use Weather File Rain Indicators
  No,  !- Use Weather File Snow Indicators
  No;  !- Treat Weather as Actual

RunPeriodControl:SpecialDays,
  Saturday Holiday,
  2/27,
  1,
  Holiday;

Output:Variable,
  Environment,
  Site Day Type Index,
  Hourly;
