Version,26.1;

Building,
  Calendar Special Day Duration Wrap Exact Fixture,
  0.0,
  Suburbs,
  0.04,
  0.4,
  FullExterior,
  25,
  6;

Timestep,4;

GlobalGeometryRules,
  UpperLeftCorner,
  CounterClockWise,
  World;

RunPeriod,
  Special Day Duration Wrap Run Period,
  1,
  1,
  2017,
  1,
  3,
  2017,
  Sunday,
  No,  !- Use Weather File Holidays and Special Days
  No,  !- Use Weather File Daylight Saving Period
  No,  !- Apply Weekend Holiday Rule
  No,  !- Use Weather File Rain Indicators
  No,  !- Use Weather File Snow Indicators
  No;  !- Treat Weather as Actual

RunPeriodControl:SpecialDays,
  Three Day Year Wrap Holiday,
  12/31,
  3,
  Holiday;

Output:Variable,
  Environment,
  Site Day Type Index,
  Hourly;
