Version,26.1;

Building,
  Weather Record Start Offset Fixture,
  0.0,
  Suburbs,
  0.04,
  0.4,
  FullExterior,
  25,
  6;

Timestep,1;

GlobalGeometryRules,
  UpperLeftCorner,
  CounterClockWise,
  World;

RunPeriod,
  Weather Record Offset Run Period,
  7,
  1,
  2016,
  7,
  2,
  2016,
  Friday,
  No,  !- Use Weather File Holidays and Special Days
  No,  !- Use Weather File Daylight Saving Period
  No,  !- Apply Weekend Holiday Rule
  No,  !- Use Weather File Rain Indicators
  No,  !- Use Weather File Snow Indicators
  No;  !- Treat Weather as Actual

Output:Variable,
  *,
  Site Outdoor Air Drybulb Temperature,
  Hourly;
