LOCATION,Weather Record Offset Fixture,CO,USA,Synthetic,999998,39.74,-105.18,-7.0,1829.0
DESIGN CONDITIONS,0
TYPICAL/EXTREME PERIODS,0
GROUND TEMPERATURES,0
HOLIDAYS/DAYLIGHT SAVINGS,No,0,0,0
COMMENTS 1,Three source days with a leading decoy day for literal RunPeriod start positioning
COMMENTS 2,Source years intentionally differ from the non-actual RunPeriod year
DATA PERIODS,1,1,Data,Thursday,6/30,7/2
1999,6,30,1,60,?9?9?9?9E0?9?9?9?9?9?9?9?9?9?9?9?9?9?9?9*9*9?9*9*9,-19.9,-30.0,50,80600,0,0,250,0,0,0,0,0,0,0,180,2.0,5,5,20.0,7777,9,999999999,0,0.0000,0,0,0.000,0.0,0.0
1999,6,30,2,60,?9?9?9?9E0?9?9?9?9?9?9?9?9?9?9?9?9?9?9?9*9*9?9*9*9,-19.8,-30.0,50,80600,0,0,250,0,0,0,0,0,0,0,180,2.0,5,5,20.0,7777,9,999999999,0,0.0000,0,0,0.000,0.0,0.0
1999,6,30,3,60,?9?9?9?9E0?9?9?9?9?9?9?9?9?9?9?9?9?9?9?9*9*9?9*9*9,-19.7,-30.0,50,80600,0,0,250,0,0,0,0,0,0,0,180,2.0,5,5,20.0,7777,9,999999999,0,0.0000,0,0,0.000,0.0,0.0
1999,6,30,4,60,?9?9?9?9E0?9?9?9?9?9?9?9?9?9?9?9?9?9?9?9*9*9?9*9*9,-19.6,-30.0,50,80600,0,0,250,0,0,0,0,0,0,0,180,2.0,5,5,20.0,7777,9,999999999,0,0.0000,0,0,0.000,0.0,0.0
1999,6,30,5,60,?9?9?9?9E0?9?9?9?9?9?9?9?9?9?9?9?9?9?9?9*9*9?9*9*9,-19.5,-30.0,50,80600,0,0,250,0,0,0,0,0,0,0,180,2.0,5,5,20.0,7777,9,999999999,0,0.0000,0,0,0.000,0.0,0.0
1999,6,30,6,60,?9?9?9?9E0?9?9?9?9?9?9?9?9?9?9?9?9?9?9?9*9*9?9*9*9,-19.4,-30.0,50,80600,0,0,250,0,0,0,0,0,0,0,180,2.0,5,5,20.0,7777,9,999999999,0,0.0000,0,0,0.000,0.0,0.0
1999,6,30,7,60,?9?9?9?9E0?9?9?9?9?9?9?9?9?9?9?9?9?9?9?9*9*9?9*9*9,-19.3,-30.0,50,80600,0,0,250,0,0,0,0,0,0,0,180,2.0,5,5,20.0,7777,9,999999999,0,0.0000,0,0,0.000,0.0,0.0
1999,6,30,8,60,?9?9?9?9E0?9?9?9?9?9?9?9?9?9?9?9?9?9?9?9*9*9?9*9*9,-19.2,-30.0,50,80600,0,0,250,0,0,0,0,0,0,0,180,2.0,5,5,20.0,7777,9,999999999,0,0.0000,0,0,0.000,0.0,0.0
1999,6,30,9,60,?9?9?9?9E0?9?9?9?9?9?9?9?9?9?9?9?9?9?9?9*9*9?9*9*9,-19.1,-30.0,50,80600,0,0,250,0,0,0,0,0,0,0,180,2.0,5,5,20.0,7777,9,999999999,0,0.0000,0,0,0.000,0.0,0.0
1999,6,30,10,60,?9?9?9?9E0?9?9?9?9?9?9?9?9?9?9?9?9?9?9?9*9*9?9*9*9,-19.0,-30.0,50,80600,0,0,250,0,0,0,0,0,0,0,180,2.0,5,5,20.0,7777,9,999999999,0,0.0000,0,0,0.000,0.0,0.0
1999,6,30,11,60,?9?9?9?9E0?9?9?9?9?9?9?9?9?9?9?9?9?9?9?9*9*9?9*9*9,-18.9,-30.0,50,80600,0,0,250,0,0,0,0,0,0,0,180,2.0,5,5,20.0,7777,9,999999999,0,0.0000,0,0,0.000,0.0,0.0
1999,6,30,12,60,?9?9?9?9E0?9?9?9?9?9?9?9?9?9?9?9?9?9?9?9*9*9?9*9*9,-18.8,-30.0,50,80600,0,0,250,0,0,0,0,0,0,0,180,2.0,5,5,20.0,7777,9,999999999,0,0.0000,0,0,0.000,0.0,0.0
1999,6,30,13,60,?9?9?9?9E0?9?9?9?9?9?9?9?9?9?9?9?9?9?9?9*9*9?9*9*9,-18.7,-30.0,50,80600,0,0,250,0,0,0,0,0,0,0,180,2.0,5,5,20.0,7777,9,999999999,0,0.0000,0,0,0.000,0.0,0.0
1999,6,30,14,60,?9?9?9?9E0?9?9?9?9?9?9?9?9?9?9?9?9?9?9?9*9*9?9*9*9,-18.6,-30.0,50,80600,0,0,250,0,0,0,0,0,0,0,180,2.0,5,5,20.0,7777,9,999999999,0,0.0000,0,0,0.000,0.0,0.0
1999,6,30,15,60,?9?9?9?9E0?9?9?9?9?9?9?9?9?9?9?9?9?9?9?9*9*9?9*9*9,-18.5,-30.0,50,80600,0,0,250,0,0,0,0,0,0,0,180,2.0,5,5,20.0,7777,9,999999999,0,0.0000,0,0,0.000,0.0,0.0
1999,6,30,16,60,?9?9?9?9E0?9?9?9?9?9?9?9?9?9?9?9?9?9?9?9*9*9?9*9*9,-18.4,-30.0,50,80600,0,0,250,0,0,0,0,0,0,0,180,2.0,5,5,20.0,7777,9,999999999,0,0.0000,0,0,0.000,0.0,0.0
1999,6,30,17,60,?9?9?9?9E0?9?9?9?9?9?9?9?9?9?9?9?9?9?9?9*9*9?9*9*9,-18.3,-30.0,50,80600,0,0,250,0,0,0,0,0,0,0,180,2.0,5,5,20.0,7777,9,999999999,0,0.0000,0,0,0.000,0.0,0.0
1999,6,30,18,60,?9?9?9?9E0?9?9?9?9?9?9?9?9?9?9?9?9?9?9?9*9*9?9*9*9,-18.2,-30.0,50,80600,0,0,250,0,0,0,0,0,0,0,180,2.0,5,5,20.0,7777,9,999999999,0,0.0000,0,0,0.000,0.0,0.0
1999,6,30,19,60,?9?9?9?9E0?9?9?9?9?9?9?9?9?9?9?9?9?9?9?9*9*9?9*9*9,-18.1,-30.0,50,80600,0,0,250,0,0,0,0,0,0,0,180,2.0,5,5,20.0,7777,9,999999999,0,0.0000,0,0,0.000,0.0,0.0
1999,6,30,20,60,?9?9?9?9E0?9?9?9?9?9?9?9?9?9?9?9?9?9?9?9*9*9?9*9*9,-18.0,-30.0,50,80600,0,0,250,0,0,0,0,0,0,0,180,2.0,5,5,20.0,7777,9,999999999,0,0.0000,0,0,0.000,0.0,0.0
1999,6,30,21,60,?9?9?9?9E0?9?9?9?9?9?9?9?9?9?9?9?9?9?9?9*9*9?9*9*9,-17.9,-30.0,50,80600,0,0,250,0,0,0,0,0,0,0,180,2.0,5,5,20.0,7777,9,999999999,0,0.0000,0,0,0.000,0.0,0.0
1999,6,30,22,60,?9?9?9?9E0?9?9?9?9?9?9?9?9?9?9?9?9?9?9?9*9*9?9*9*9,-17.8,-30.0,50,80600,0,0,250,0,0,0,0,0,0,0,180,2.0,5,5,20.0,7777,9,999999999,0,0.0000,0,0,0.000,0.0,0.0
1999,6,30,23,60,?9?9?9?9E0?9?9?9?9?9?9?9?9?9?9?9?9?9?9?9*9*9?9*9*9,-17.7,-30.0,50,80600,0,0,250,0,0,0,0,0,0,0,180,2.0,5,5,20.0,7777,9,999999999,0,0.0000,0,0,0.000,0.0,0.0
1999,6,30,24,60,?9?9?9?9E0?9?9?9?9?9?9?9?9?9?9?9?9?9?9?9*9*9?9*9*9,-17.6,-30.0,50,80600,0,0,250,0,0,0,0,0,0,0,180,2.0,5,5,20.0,7777,9,999999999,0,0.0000,0,0,0.000,0.0,0.0
2004,7,1,1,60,?9?9?9?9E0?9?9?9?9?9?9?9?9?9?9?9?9?9?9?9*9*9?9*9*9,10.1,-30.0,50,80600,0,0,250,0,0,0,0,0,0,0,180,2.0,5,5,20.0,7777,9,999999999,0,0.0000,0,0,0.000,0.0,0.0
2004,7,1,2,60,?9?9?9?9E0?9?9?9?9?9?9?9?9?9?9?9?9?9?9?9*9*9?9*9*9,10.2,-30.0,50,80600,0,0,250,0,0,0,0,0,0,0,180,2.0,5,5,20.0,7777,9,999999999,0,0.0000,0,0,0.000,0.0,0.0
2004,7,1,3,60,?9?9?9?9E0?9?9?9?9?9?9?9?9?9?9?9?9?9?9?9*9*9?9*9*9,10.3,-30.0,50,80600,0,0,250,0,0,0,0,0,0,0,180,2.0,5,5,20.0,7777,9,999999999,0,0.0000,0,0,0.000,0.0,0.0
2004,7,1,4,60,?9?9?9?9E0?9?9?9?9?9?9?9?9?9?9?9?9?9?9?9*9*9?9*9*9,10.4,-30.0,50,80600,0,0,250,0,0,0,0,0,0,0,180,2.0,5,5,20.0,7777,9,999999999,0,0.0000,0,0,0.000,0.0,0.0
2004,7,1,5,60,?9?9?9?9E0?9?9?9?9?9?9?9?9?9?9?9?9?9?9?9*9*9?9*9*9,10.5,-30.0,50,80600,0,0,250,0,0,0,0,0,0,0,180,2.0,5,5,20.0,7777,9,999999999,0,0.0000,0,0,0.000,0.0,0.0
2004,7,1,6,60,?9?9?9?9E0?9?9?9?9?9?9?9?9?9?9?9?9?9?9?9*9*9?9*9*9,10.6,-30.0,50,80600,0,0,250,0,0,0,0,0,0,0,180,2.0,5,5,20.0,7777,9,999999999,0,0.0000,0,0,0.000,0.0,0.0
2004,7,1,7,60,?9?9?9?9E0?9?9?9?9?9?9?9?9?9?9?9?9?9?9?9*9*9?9*9*9,10.7,-30.0,50,80600,0,0,250,0,0,0,0,0,0,0,180,2.0,5,5,20.0,7777,9,999999999,0,0.0000,0,0,0.000,0.0,0.0
2004,7,1,8,60,?9?9?9?9E0?9?9?9?9?9?9?9?9?9?9?9?9?9?9?9*9*9?9*9*9,10.8,-30.0,50,80600,0,0,250,0,0,0,0,0,0,0,180,2.0,5,5,20.0,7777,9,999999999,0,0.0000,0,0,0.000,0.0,0.0
2004,7,1,9,60,?9?9?9?9E0?9?9?9?9?9?9?9?9?9?9?9?9?9?9?9*9*9?9*9*9,10.9,-30.0,50,80600,0,0,250,0,0,0,0,0,0,0,180,2.0,5,5,20.0,7777,9,999999999,0,0.0000,0,0,0.000,0.0,0.0
2004,7,1,10,60,?9?9?9?9E0?9?9?9?9?9?9?9?9?9?9?9?9?9?9?9*9*9?9*9*9,11.0,-30.0,50,80600,0,0,250,0,0,0,0,0,0,0,180,2.0,5,5,20.0,7777,9,999999999,0,0.0000,0,0,0.000,0.0,0.0
2004,7,1,11,60,?9?9?9?9E0?9?9?9?9?9?9?9?9?9?9?9?9?9?9?9*9*9?9*9*9,11.1,-30.0,50,80600,0,0,250,0,0,0,0,0,0,0,180,2.0,5,5,20.0,7777,9,999999999,0,0.0000,0,0,0.000,0.0,0.0
2004,7,1,12,60,?9?9?9?9E0?9?9?9?9?9?9?9?9?9?9?9?9?9?9?9*9*9?9*9*9,11.2,-30.0,50,80600,0,0,250,0,0,0,0,0,0,0,180,2.0,5,5,20.0,7777,9,999999999,0,0.0000,0,0,0.000,0.0,0.0
2004,7,1,13,60,?9?9?9?9E0?9?9?9?9?9?9?9?9?9?9?9?9?9?9?9*9*9?9*9*9,11.3,-30.0,50,80600,0,0,250,0,0,0,0,0,0,0,180,2.0,5,5,20.0,7777,9,999999999,0,0.0000,0,0,0.000,0.0,0.0
2004,7,1,14,60,?9?9?9?9E0?9?9?9?9?9?9?9?9?9?9?9?9?9?9?9*9*9?9*9*9,11.4,-30.0,50,80600,0,0,250,0,0,0,0,0,0,0,180,2.0,5,5,20.0,7777,9,999999999,0,0.0000,0,0,0.000,0.0,0.0
2004,7,1,15,60,?9?9?9?9E0?9?9?9?9?9?9?9?9?9?9?9?9?9?9?9*9*9?9*9*9,11.5,-30.0,50,80600,0,0,250,0,0,0,0,0,0,0,180,2.0,5,5,20.0,7777,9,999999999,0,0.0000,0,0,0.000,0.0,0.0
2004,7,1,16,60,?9?9?9?9E0?9?9?9?9?9?9?9?9?9?9?9?9?9?9?9*9*9?9*9*9,11.6,-30.0,50,80600,0,0,250,0,0,0,0,0,0,0,180,2.0,5,5,20.0,7777,9,999999999,0,0.0000,0,0,0.000,0.0,0.0
2004,7,1,17,60,?9?9?9?9E0?9?9?9?9?9?9?9?9?9?9?9?9?9?9?9*9*9?9*9*9,11.7,-30.0,50,80600,0,0,250,0,0,0,0,0,0,0,180,2.0,5,5,20.0,7777,9,999999999,0,0.0000,0,0,0.000,0.0,0.0
2004,7,1,18,60,?9?9?9?9E0?9?9?9?9?9?9?9?9?9?9?9?9?9?9?9*9*9?9*9*9,11.8,-30.0,50,80600,0,0,250,0,0,0,0,0,0,0,180,2.0,5,5,20.0,7777,9,999999999,0,0.0000,0,0,0.000,0.0,0.0
2004,7,1,19,60,?9?9?9?9E0?9?9?9?9?9?9?9?9?9?9?9?9?9?9?9*9*9?9*9*9,11.9,-30.0,50,80600,0,0,250,0,0,0,0,0,0,0,180,2.0,5,5,20.0,7777,9,999999999,0,0.0000,0,0,0.000,0.0,0.0
2004,7,1,20,60,?9?9?9?9E0?9?9?9?9?9?9?9?9?9?9?9?9?9?9?9*9*9?9*9*9,12.0,-30.0,50,80600,0,0,250,0,0,0,0,0,0,0,180,2.0,5,5,20.0,7777,9,999999999,0,0.0000,0,0,0.000,0.0,0.0
2004,7,1,21,60,?9?9?9?9E0?9?9?9?9?9?9?9?9?9?9?9?9?9?9?9*9*9?9*9*9,12.1,-30.0,50,80600,0,0,250,0,0,0,0,0,0,0,180,2.0,5,5,20.0,7777,9,999999999,0,0.0000,0,0,0.000,0.0,0.0
2004,7,1,22,60,?9?9?9?9E0?9?9?9?9?9?9?9?9?9?9?9?9?9?9?9*9*9?9*9*9,12.2,-30.0,50,80600,0,0,250,0,0,0,0,0,0,0,180,2.0,5,5,20.0,7777,9,999999999,0,0.0000,0,0,0.000,0.0,0.0
2004,7,1,23,60,?9?9?9?9E0?9?9?9?9?9?9?9?9?9?9?9?9?9?9?9*9*9?9*9*9,12.3,-30.0,50,80600,0,0,250,0,0,0,0,0,0,0,180,2.0,5,5,20.0,7777,9,999999999,0,0.0000,0,0,0.000,0.0,0.0
2004,7,1,24,60,?9?9?9?9E0?9?9?9?9?9?9?9?9?9?9?9?9?9?9?9*9*9?9*9*9,12.4,-30.0,50,80600,0,0,250,0,0,0,0,0,0,0,180,2.0,5,5,20.0,7777,9,999999999,0,0.0000,0,0,0.000,0.0,0.0
2007,7,2,1,60,?9?9?9?9E0?9?9?9?9?9?9?9?9?9?9?9?9?9?9?9*9*9?9*9*9,20.1,-30.0,50,80600,0,0,250,0,0,0,0,0,0,0,180,2.0,5,5,20.0,7777,9,999999999,0,0.0000,0,0,0.000,0.0,0.0
2007,7,2,2,60,?9?9?9?9E0?9?9?9?9?9?9?9?9?9?9?9?9?9?9?9*9*9?9*9*9,20.2,-30.0,50,80600,0,0,250,0,0,0,0,0,0,0,180,2.0,5,5,20.0,7777,9,999999999,0,0.0000,0,0,0.000,0.0,0.0
2007,7,2,3,60,?9?9?9?9E0?9?9?9?9?9?9?9?9?9?9?9?9?9?9?9*9*9?9*9*9,20.3,-30.0,50,80600,0,0,250,0,0,0,0,0,0,0,180,2.0,5,5,20.0,7777,9,999999999,0,0.0000,0,0,0.000,0.0,0.0
2007,7,2,4,60,?9?9?9?9E0?9?9?9?9?9?9?9?9?9?9?9?9?9?9?9*9*9?9*9*9,20.4,-30.0,50,80600,0,0,250,0,0,0,0,0,0,0,180,2.0,5,5,20.0,7777,9,999999999,0,0.0000,0,0,0.000,0.0,0.0
2007,7,2,5,60,?9?9?9?9E0?9?9?9?9?9?9?9?9?9?9?9?9?9?9?9*9*9?9*9*9,20.5,-30.0,50,80600,0,0,250,0,0,0,0,0,0,0,180,2.0,5,5,20.0,7777,9,999999999,0,0.0000,0,0,0.000,0.0,0.0
2007,7,2,6,60,?9?9?9?9E0?9?9?9?9?9?9?9?9?9?9?9?9?9?9?9*9*9?9*9*9,20.6,-30.0,50,80600,0,0,250,0,0,0,0,0,0,0,180,2.0,5,5,20.0,7777,9,999999999,0,0.0000,0,0,0.000,0.0,0.0
2007,7,2,7,60,?9?9?9?9E0?9?9?9?9?9?9?9?9?9?9?9?9?9?9?9*9*9?9*9*9,20.7,-30.0,50,80600,0,0,250,0,0,0,0,0,0,0,180,2.0,5,5,20.0,7777,9,999999999,0,0.0000,0,0,0.000,0.0,0.0
2007,7,2,8,60,?9?9?9?9E0?9?9?9?9?9?9?9?9?9?9?9?9?9?9?9*9*9?9*9*9,20.8,-30.0,50,80600,0,0,250,0,0,0,0,0,0,0,180,2.0,5,5,20.0,7777,9,999999999,0,0.0000,0,0,0.000,0.0,0.0
2007,7,2,9,60,?9?9?9?9E0?9?9?9?9?9?9?9?9?9?9?9?9?9?9?9*9*9?9*9*9,20.9,-30.0,50,80600,0,0,250,0,0,0,0,0,0,0,180,2.0,5,5,20.0,7777,9,999999999,0,0.0000,0,0,0.000,0.0,0.0
2007,7,2,10,60,?9?9?9?9E0?9?9?9?9?9?9?9?9?9?9?9?9?9?9?9*9*9?9*9*9,21.0,-30.0,50,80600,0,0,250,0,0,0,0,0,0,0,180,2.0,5,5,20.0,7777,9,999999999,0,0.0000,0,0,0.000,0.0,0.0
2007,7,2,11,60,?9?9?9?9E0?9?9?9?9?9?9?9?9?9?9?9?9?9?9?9*9*9?9*9*9,21.1,-30.0,50,80600,0,0,250,0,0,0,0,0,0,0,180,2.0,5,5,20.0,7777,9,999999999,0,0.0000,0,0,0.000,0.0,0.0
2007,7,2,12,60,?9?9?9?9E0?9?9?9?9?9?9?9?9?9?9?9?9?9?9?9*9*9?9*9*9,21.2,-30.0,50,80600,0,0,250,0,0,0,0,0,0,0,180,2.0,5,5,20.0,7777,9,999999999,0,0.0000,0,0,0.000,0.0,0.0
2007,7,2,13,60,?9?9?9?9E0?9?9?9?9?9?9?9?9?9?9?9?9?9?9?9*9*9?9*9*9,21.3,-30.0,50,80600,0,0,250,0,0,0,0,0,0,0,180,2.0,5,5,20.0,7777,9,999999999,0,0.0000,0,0,0.000,0.0,0.0
2007,7,2,14,60,?9?9?9?9E0?9?9?9?9?9?9?9?9?9?9?9?9?9?9?9*9*9?9*9*9,21.4,-30.0,50,80600,0,0,250,0,0,0,0,0,0,0,180,2.0,5,5,20.0,7777,9,999999999,0,0.0000,0,0,0.000,0.0,0.0
2007,7,2,15,60,?9?9?9?9E0?9?9?9?9?9?9?9?9?9?9?9?9?9?9?9*9*9?9*9*9,21.5,-30.0,50,80600,0,0,250,0,0,0,0,0,0,0,180,2.0,5,5,20.0,7777,9,999999999,0,0.0000,0,0,0.000,0.0,0.0
2007,7,2,16,60,?9?9?9?9E0?9?9?9?9?9?9?9?9?9?9?9?9?9?9?9*9*9?9*9*9,21.6,-30.0,50,80600,0,0,250,0,0,0,0,0,0,0,180,2.0,5,5,20.0,7777,9,999999999,0,0.0000,0,0,0.000,0.0,0.0
2007,7,2,17,60,?9?9?9?9E0?9?9?9?9?9?9?9?9?9?9?9?9?9?9?9*9*9?9*9*9,21.7,-30.0,50,80600,0,0,250,0,0,0,0,0,0,0,180,2.0,5,5,20.0,7777,9,999999999,0,0.0000,0,0,0.000,0.0,0.0
2007,7,2,18,60,?9?9?9?9E0?9?9?9?9?9?9?9?9?9?9?9?9?9?9?9*9*9?9*9*9,21.8,-30.0,50,80600,0,0,250,0,0,0,0,0,0,0,180,2.0,5,5,20.0,7777,9,999999999,0,0.0000,0,0,0.000,0.0,0.0
2007,7,2,19,60,?9?9?9?9E0?9?9?9?9?9?9?9?9?9?9?9?9?9?9?9*9*9?9*9*9,21.9,-30.0,50,80600,0,0,250,0,0,0,0,0,0,0,180,2.0,5,5,20.0,7777,9,999999999,0,0.0000,0,0,0.000,0.0,0.0
2007,7,2,20,60,?9?9?9?9E0?9?9?9?9?9?9?9?9?9?9?9?9?9?9?9*9*9?9*9*9,22.0,-30.0,50,80600,0,0,250,0,0,0,0,0,0,0,180,2.0,5,5,20.0,7777,9,999999999,0,0.0000,0,0,0.000,0.0,0.0
2007,7,2,21,60,?9?9?9?9E0?9?9?9?9?9?9?9?9?9?9?9?9?9?9?9*9*9?9*9*9,22.1,-30.0,50,80600,0,0,250,0,0,0,0,0,0,0,180,2.0,5,5,20.0,7777,9,999999999,0,0.0000,0,0,0.000,0.0,0.0
2007,7,2,22,60,?9?9?9?9E0?9?9?9?9?9?9?9?9?9?9?9?9?9?9?9*9*9?9*9*9,22.2,-30.0,50,80600,0,0,250,0,0,0,0,0,0,0,180,2.0,5,5,20.0,7777,9,999999999,0,0.0000,0,0,0.000,0.0,0.0
2007,7,2,23,60,?9?9?9?9E0?9?9?9?9?9?9?9?9?9?9?9?9?9?9?9*9*9?9*9*9,22.3,-30.0,50,80600,0,0,250,0,0,0,0,0,0,0,180,2.0,5,5,20.0,7777,9,999999999,0,0.0000,0,0,0.000,0.0,0.0
2007,7,2,24,60,?9?9?9?9E0?9?9?9?9?9?9?9?9?9?9?9?9?9?9?9*9*9?9*9*9,22.4,-30.0,50,80600,0,0,250,0,0,0,0,0,0,0,180,2.0,5,5,20.0,7777,9,999999999,0,0.0000,0,0,0.000,0.0,0.0
