LOCATION,CLK03,CO,USA,Test,000000,39.74,-105.18,-7,1600
DESIGN CONDITIONS,0
TYPICAL/EXTREME PERIODS,0
GROUND TEMPERATURES,0
HOLIDAYS/DAYLIGHT SAVINGS,No,0,0,0
COMMENTS 1,input-only CLK03
COMMENTS 2,no expected outputs
DATA PERIODS,1,1,DATA,Sunday,6/30,7/2
1999,6,30,1,60,?,10.125,2,45.25,90000,0,0,300,100,80,20,0,0,0,0,180,2.0625,3,2,10,20000,9,999999999,10,0.1,0,0,0.2,0,1
1999,6,30,2,60,?,10.25,2,45.5,90000,0,0,300,100,80,20,0,0,0,0,180,2.125,3,2,10,20000,9,999999999,10,0.1,0,0,0.2,0,1
1999,6,30,3,60,?,10.375,2,45.75,90000,0,0,300,100,80,20,0,0,0,0,180,2.1875,3,2,10,20000,9,999999999,10,0.1,0,0,0.2,0,1
1999,6,30,4,60,?,10.5,2,46.0,90000,0,0,300,100,80,20,0,0,0,0,180,2.25,3,2,10,20000,9,999999999,10,0.1,0,0,0.2,0,1
1999,6,30,5,60,?,10.625,2,46.25,90000,0,0,300,100,80,20,0,0,0,0,180,2.3125,3,2,10,20000,9,999999999,10,0.1,0,0,0.2,0,1
1999,6,30,6,60,?,10.75,2,46.5,90000,0,0,300,100,80,20,0,0,0,0,180,2.375,3,2,10,20000,9,999999999,10,0.1,0,0,0.2,0,1
1999,6,30,7,60,?,10.875,2,46.75,90000,0,0,300,100,80,20,0,0,0,0,180,2.4375,3,2,10,20000,9,999999999,10,0.1,0,0,0.2,0,1
1999,6,30,8,60,?,11.0,2,47.0,90000,0,0,300,100,80,20,0,0,0,0,180,2.5,3,2,10,20000,9,999999999,10,0.1,0,0,0.2,0,1
1999,6,30,9,60,?,11.125,2,47.25,90000,0,0,300,100,80,20,0,0,0,0,180,2.5625,3,2,10,20000,9,999999999,10,0.1,0,0,0.2,0,1
1999,6,30,10,60,?,11.25,2,47.5,90000,0,0,300,100,80,20,0,0,0,0,180,2.625,3,2,10,20000,9,999999999,10,0.1,0,0,0.2,0,1
1999,6,30,11,60,?,11.375,2,47.75,90000,0,0,300,100,80,20,0,0,0,0,180,2.6875,3,2,10,20000,9,999999999,10,0.1,0,0,0.2,0,1
1999,6,30,12,60,?,11.5,2,48.0,90000,0,0,300,100,80,20,0,0,0,0,180,2.75,3,2,10,20000,9,999999999,10,0.1,0,0,0.2,0,1
1999,6,30,13,60,?,11.625,2,48.25,90000,0,0,300,100,80,20,0,0,0,0,180,2.8125,3,2,10,20000,9,999999999,10,0.1,0,0,0.2,0,1
1999,6,30,14,60,?,11.75,2,48.5,90000,0,0,300,100,80,20,0,0,0,0,180,2.875,3,2,10,20000,9,999999999,10,0.1,0,0,0.2,0,1
1999,6,30,15,60,?,11.875,2,48.75,90000,0,0,300,100,80,20,0,0,0,0,180,2.9375,3,2,10,20000,9,999999999,10,0.1,0,0,0.2,0,1
1999,6,30,16,60,?,12.0,2,49.0,90000,0,0,300,100,80,20,0,0,0,0,180,3.0,3,2,10,20000,9,999999999,10,0.1,0,0,0.2,0,1
1999,6,30,17,60,?,12.125,2,49.25,90000,0,0,300,100,80,20,0,0,0,0,180,3.0625,3,2,10,20000,9,999999999,10,0.1,0,0,0.2,0,1
1999,6,30,18,60,?,12.25,2,49.5,90000,0,0,300,100,80,20,0,0,0,0,180,3.125,3,2,10,20000,9,999999999,10,0.1,0,0,0.2,0,1
1999,6,30,19,60,?,12.375,2,49.75,90000,0,0,300,100,80,20,0,0,0,0,180,3.1875,3,2,10,20000,9,999999999,10,0.1,0,0,0.2,0,1
1999,6,30,20,60,?,12.5,2,50.0,90000,0,0,300,100,80,20,0,0,0,0,180,3.25,3,2,10,20000,9,999999999,10,0.1,0,0,0.2,0,1
1999,6,30,21,60,?,12.625,2,50.25,90000,0,0,300,100,80,20,0,0,0,0,180,3.3125,3,2,10,20000,9,999999999,10,0.1,0,0,0.2,0,1
1999,6,30,22,60,?,12.75,2,50.5,90000,0,0,300,100,80,20,0,0,0,0,180,3.375,3,2,10,20000,9,999999999,10,0.1,0,0,0.2,0,1
1999,6,30,23,60,?,12.875,2,50.75,90000,0,0,300,100,80,20,0,0,0,0,180,3.4375,3,2,10,20000,9,999999999,10,0.1,0,0,0.2,0,1
1999,6,30,24,60,?,13.0,2,51.0,90000,0,0,300,100,80,20,0,0,0,0,180,3.5,3,2,10,20000,9,999999999,10,0.1,0,0,0.2,0,1
2007,7,2,1,60,?,15.125,3,45.25,90100,0,0,300,100,80,20,0,0,0,0,190,2.0625,3,2,10,20000,9,999999999,10,0.1,0,0,0.2,0,1
2007,7,2,2,60,?,15.25,3,45.5,90100,0,0,300,100,80,20,0,0,0,0,190,2.125,3,2,10,20000,9,999999999,10,0.1,0,0,0.2,0,1
2007,7,2,3,60,?,15.375,3,45.75,90100,0,0,300,100,80,20,0,0,0,0,190,2.1875,3,2,10,20000,9,999999999,10,0.1,0,0,0.2,0,1
2007,7,2,4,60,?,15.5,3,46.0,90100,0,0,300,100,80,20,0,0,0,0,190,2.25,3,2,10,20000,9,999999999,10,0.1,0,0,0.2,0,1
2007,7,2,5,60,?,15.625,3,46.25,90100,0,0,300,100,80,20,0,0,0,0,190,2.3125,3,2,10,20000,9,999999999,10,0.1,0,0,0.2,0,1
2007,7,2,6,60,?,15.75,3,46.5,90100,0,0,300,100,80,20,0,0,0,0,190,2.375,3,2,10,20000,9,999999999,10,0.1,0,0,0.2,0,1
2007,7,2,7,60,?,15.875,3,46.75,90100,0,0,300,100,80,20,0,0,0,0,190,2.4375,3,2,10,20000,9,999999999,10,0.1,0,0,0.2,0,1
2007,7,2,8,60,?,16.0,3,47.0,90100,0,0,300,100,80,20,0,0,0,0,190,2.5,3,2,10,20000,9,999999999,10,0.1,0,0,0.2,0,1
2007,7,2,9,60,?,16.125,3,47.25,90100,0,0,300,100,80,20,0,0,0,0,190,2.5625,3,2,10,20000,9,999999999,10,0.1,0,0,0.2,0,1
2007,7,2,10,60,?,16.25,3,47.5,90100,0,0,300,100,80,20,0,0,0,0,190,2.625,3,2,10,20000,9,999999999,10,0.1,0,0,0.2,0,1
2007,7,2,11,60,?,16.375,3,47.75,90100,0,0,300,100,80,20,0,0,0,0,190,2.6875,3,2,10,20000,9,999999999,10,0.1,0,0,0.2,0,1
2007,7,2,12,60,?,16.5,3,48.0,90100,0,0,300,100,80,20,0,0,0,0,190,2.75,3,2,10,20000,9,999999999,10,0.1,0,0,0.2,0,1
2007,7,2,13,60,?,16.625,3,48.25,90100,0,0,300,100,80,20,0,0,0,0,190,2.8125,3,2,10,20000,9,999999999,10,0.1,0,0,0.2,0,1
2007,7,2,14,60,?,16.75,3,48.5,90100,0,0,300,100,80,20,0,0,0,0,190,2.875,3,2,10,20000,9,999999999,10,0.1,0,0,0.2,0,1
2007,7,2,15,60,?,16.875,3,48.75,90100,0,0,300,100,80,20,0,0,0,0,190,2.9375,3,2,10,20000,9,999999999,10,0.1,0,0,0.2,0,1
2007,7,2,16,60,?,17.0,3,49.0,90100,0,0,300,100,80,20,0,0,0,0,190,3.0,3,2,10,20000,9,999999999,10,0.1,0,0,0.2,0,1
2007,7,2,17,60,?,17.125,3,49.25,90100,0,0,300,100,80,20,0,0,0,0,190,3.0625,3,2,10,20000,9,999999999,10,0.1,0,0,0.2,0,1
2007,7,2,18,60,?,17.25,3,49.5,90100,0,0,300,100,80,20,0,0,0,0,190,3.125,3,2,10,20000,9,999999999,10,0.1,0,0,0.2,0,1
2007,7,2,19,60,?,17.375,3,49.75,90100,0,0,300,100,80,20,0,0,0,0,190,3.1875,3,2,10,20000,9,999999999,10,0.1,0,0,0.2,0,1
2007,7,2,20,60,?,17.5,3,50.0,90100,0,0,300,100,80,20,0,0,0,0,190,3.25,3,2,10,20000,9,999999999,10,0.1,0,0,0.2,0,1
2007,7,2,21,60,?,17.625,3,50.25,90100,0,0,300,100,80,20,0,0,0,0,190,3.3125,3,2,10,20000,9,999999999,10,0.1,0,0,0.2,0,1
2007,7,2,22,60,?,17.75,3,50.5,90100,0,0,300,100,80,20,0,0,0,0,190,3.375,3,2,10,20000,9,999999999,10,0.1,0,0,0.2,0,1
2007,7,2,23,60,?,17.875,3,50.75,90100,0,0,300,100,80,20,0,0,0,0,190,3.4375,3,2,10,20000,9,999999999,10,0.1,0,0,0.2,0,1
2007,7,2,24,60,?,18.0,3,51.0,90100,0,0,300,100,80,20,0,0,0,0,190,3.5,3,2,10,20000,9,999999999,10,0.1,0,0,0.2,0,1
