Version,26.1;

SimulationControl,
  No,                      !- Do Zone Sizing Calculation
  No,                      !- Do System Sizing Calculation
  No,                      !- Do Plant Sizing Calculation
  No,                      !- Run Simulation for Sizing Periods
  Yes;                     !- Run Simulation for Weather File Run Periods

Building,
  Rusted EnergyPlus IdealLoads Outdoor Air Design Flow Diagnostic,
  0.0,
  Suburbs,
  0.04,
  0.4,
  FullExterior,
  25,
  6;

Timestep,4;

RunPeriod,
  Run Period 1,
  1,
  1,
  2013,
  1,
  1,
  2013,
  Tuesday,
  Yes,
  Yes,
  No,
  Yes,
  Yes;

Site:Location,
  Golden CO USA,
  39.74,
  -105.18,
  -7.0,
  1829.0;

GlobalGeometryRules,
  UpperLeftCorner,
  CounterClockWise,
  World;

ScheduleTypeLimits,
  Control Type,
  0,
  4,
  DISCRETE;

ScheduleTypeLimits,
  Temperature,
  -60,
  200,
  CONTINUOUS;

ScheduleTypeLimits,
  Fraction,
  0,
  1,
  CONTINUOUS;

Schedule:Constant,
  Zone Control Type Schedule,
  Control Type,
  4;

Schedule:Constant,
  Heating Setpoint,
  Temperature,
  21;

Schedule:Constant,
  Cooling Setpoint,
  Temperature,
  24;

Schedule:Compact,
  Internal Gain Schedule,
  Fraction,
  Through: 12/31,
  For: AllDays,
  Until: 06:00,
  0.0,
  Until: 18:00,
  1.0,
  Until: 24:00,
  0.0;

Material,
  Mass Layer,
  Rough,
  0.10,
  1.40,
  2200,
  900,
  0.9,
  0.7,
  0.7;

Construction,
  Wall,
  Mass Layer;

Zone,
  ZONE ONE,
  0,
  0,
  0,
  0,
  1,
  1,
  1,
  1;

BuildingSurface:Detailed,
  FLOOR,
  Floor,
  Wall,
  ZONE ONE,
  ,
  Outdoors,
  ,
  NoSun,
  NoWind,
  1.0,
  4,
  0,1,0,
  1,1,0,
  1,0,0,
  0,0,0;

BuildingSurface:Detailed,
  ROOF,
  Roof,
  Wall,
  ZONE ONE,
  ,
  Outdoors,
  ,
  NoSun,
  NoWind,
  0.0,
  4,
  1,0,1,
  1,1,1,
  0,1,1,
  0,0,1;

BuildingSurface:Detailed,
  WALL X0,
  Wall,
  Wall,
  ZONE ONE,
  ,
  Outdoors,
  ,
  NoSun,
  NoWind,
  0.5,
  4,
  0,0,0,
  0,1,0,
  0,1,1,
  0,0,1;

BuildingSurface:Detailed,
  WALL X1,
  Wall,
  Wall,
  ZONE ONE,
  ,
  Outdoors,
  ,
  NoSun,
  NoWind,
  0.5,
  4,
  1,0,0,
  1,0,1,
  1,1,1,
  1,1,0;

BuildingSurface:Detailed,
  WALL Y0,
  Wall,
  Wall,
  ZONE ONE,
  ,
  Outdoors,
  ,
  NoSun,
  NoWind,
  0.5,
  4,
  0,0,0,
  0,0,1,
  1,0,1,
  1,0,0;

BuildingSurface:Detailed,
  WALL Y1,
  Wall,
  Wall,
  ZONE ONE,
  ,
  Outdoors,
  ,
  NoSun,
  NoWind,
  0.5,
  4,
  0,1,0,
  1,1,0,
  1,1,1,
  0,1,1;

OtherEquipment,
  Noon Plug Load,
  None,
  ZONE ONE,
  Internal Gain Schedule,
  EquipmentLevel,
  500.0,
  ,
  ,
  0.0,
  0.20,
  0.0;

ZoneControl:Thermostat,
  ZONE ONE CONTROLS,
  ZONE ONE,
  Zone Control Type Schedule,
  ThermostatSetpoint:DualSetpoint,
  ZONE ONE SETPOINTS;

ThermostatSetpoint:DualSetpoint,
  ZONE ONE SETPOINTS,
  Heating Setpoint,
  Cooling Setpoint;

ZoneHVAC:EquipmentConnections,
  ZONE ONE,
  ZONE ONE EQUIPMENT,
  ZONE ONE INLETS,
  ,
  ZONE ONE AIR NODE,
  ZONE ONE RETURN;

ZoneHVAC:EquipmentList,
  ZONE ONE EQUIPMENT,
  SequentialLoad,
  ZoneHVAC:IdealLoadsAirSystem,
  ZONE ONE IDEAL LOADS,
  1,
  1,
  ,
  ;

DesignSpecification:OutdoorAir,
  OUTDOOR AIR SPEC,
  Flow/Area,
  ,
  0.05;

OutdoorAir:Node,
  OUTDOOR AIR NODE;

ZoneHVAC:IdealLoadsAirSystem,
  ZONE ONE IDEAL LOADS,
  ,
  ZONE ONE INLETS,
  ,
  ,
  50,
  13,
  0.0156,
  0.0077,
  NoLimit,
  ,
  ,
  NoLimit,
  ,
  ,
  ,
  ,
  ConstantSensibleHeatRatio,
  0.7,
  None,
  OUTDOOR AIR SPEC,
  OUTDOOR AIR NODE,
  None,
  NoEconomizer,
  None,
  0.7,
  0.65,
  ,
  ,
  DistrictHeatingWater,
  ,
  DistrictCooling;

NodeList,
  ZONE ONE INLETS,
  ZONE ONE INLET;

Output:VariableDictionary,Regular;
Output:Variable,ZONE ONE IDEAL LOADS,Zone Ideal Loads Outdoor Air Mass Flow Rate,Detailed;
Output:Variable,ZONE ONE IDEAL LOADS,Zone Ideal Loads Outdoor Air Standard Density Volume Flow Rate,Detailed;
Output:Variable,ZONE ONE IDEAL LOADS,Zone Ideal Loads Outdoor Air Sensible Heating Rate,Detailed;
Output:Variable,ZONE ONE IDEAL LOADS,Zone Ideal Loads Outdoor Air Sensible Cooling Rate,Detailed;
Output:Variable,ZONE ONE IDEAL LOADS,Zone Ideal Loads Outdoor Air Latent Heating Rate,Detailed;
Output:Variable,ZONE ONE IDEAL LOADS,Zone Ideal Loads Outdoor Air Latent Cooling Rate,Detailed;
Output:Variable,ZONE ONE IDEAL LOADS,Zone Ideal Loads Outdoor Air Total Heating Rate,Detailed;
Output:Variable,ZONE ONE IDEAL LOADS,Zone Ideal Loads Outdoor Air Total Cooling Rate,Detailed;
Output:Variable,ZONE ONE IDEAL LOADS,Zone Ideal Loads Supply Air Mass Flow Rate,Detailed;
Output:Variable,ZONE ONE IDEAL LOADS,Zone Ideal Loads Supply Air Standard Density Volume Flow Rate,Detailed;
Output:Variable,ZONE ONE IDEAL LOADS,Zone Ideal Loads Supply Air Temperature,Detailed;
Output:Variable,ZONE ONE IDEAL LOADS,Zone Ideal Loads Supply Air Humidity Ratio,Detailed;
Output:Variable,ZONE ONE IDEAL LOADS,Zone Ideal Loads Mixed Air Temperature,Detailed;
Output:Variable,ZONE ONE IDEAL LOADS,Zone Ideal Loads Mixed Air Humidity Ratio,Detailed;
Output:Variable,ZONE ONE IDEAL LOADS,Zone Ideal Loads Heat Recovery Sensible Heating Rate,Detailed;
Output:Variable,ZONE ONE IDEAL LOADS,Zone Ideal Loads Heat Recovery Latent Heating Rate,Detailed;
Output:Variable,ZONE ONE IDEAL LOADS,Zone Ideal Loads Heat Recovery Total Heating Rate,Detailed;
Output:Variable,ZONE ONE IDEAL LOADS,Zone Ideal Loads Heat Recovery Sensible Cooling Rate,Detailed;
Output:Variable,ZONE ONE IDEAL LOADS,Zone Ideal Loads Heat Recovery Latent Cooling Rate,Detailed;
Output:Variable,ZONE ONE IDEAL LOADS,Zone Ideal Loads Heat Recovery Total Cooling Rate,Detailed;
Output:Variable,ZONE ONE IDEAL LOADS,Zone Ideal Loads Economizer Active Time,Detailed;
Output:Variable,ZONE ONE IDEAL LOADS,Zone Ideal Loads Heat Recovery Active Time,Detailed;
Output:Variable,ZONE ONE,Zone Mean Air Temperature,Detailed;
Output:Variable,ZONE ONE,Zone Air Humidity Ratio,Detailed;
Output:Variable,ZONE ONE,Zone System Predicted Sensible Load to Heating Setpoint Heat Transfer Rate,Detailed;
Output:Variable,ZONE ONE,Zone System Predicted Sensible Load to Cooling Setpoint Heat Transfer Rate,Detailed;
Output:Variable,ZONE ONE AIR NODE,System Node Temperature,Detailed;
Output:Variable,ZONE ONE AIR NODE,System Node Humidity Ratio,Detailed;
Output:Variable,OUTDOOR AIR NODE,System Node Temperature,Detailed;
Output:Variable,OUTDOOR AIR NODE,System Node Humidity Ratio,Detailed;
