Version,26.1;

SimulationControl,No,No,No,No,Yes,No;

Building,1Zone Varied Internal Gain Fixture,0.0,Suburbs,0.04,0.4,FullExterior,25,6;

Timestep,4;

Site:Location,Golden,39.74,-105.18,-7.0,1829.0;

RunPeriod,Run Period 1,1,1,2013,1,1,2013,Tuesday,Yes,Yes,No,Yes,Yes;

GlobalGeometryRules,UpperLeftCorner,CounterClockWise,World;

ScheduleTypeLimits,Any Number;

Schedule:Compact,
  Pulse Gain Schedule,
  Any Number,
  Through: 12/31,
  For: AllDays,
  Until: 06:00,
  0.0,
  Until: 12:00,
  1.0,
  Until: 18:00,
  0.25,
  Until: 24:00,
  0.0;

Material:NoMass,R1,Rough,1.0,0.9,0.7,0.7;

Construction,Wall Construction,R1;

Zone,ZONE ONE,0,0,0,0,1,1,1,1;

OtherEquipment,
  Pulse Gains,
  None,
  ZONE ONE,
  Pulse Gain Schedule,
  EquipmentLevel,
  12.0,
  ,
  ,
  0.0,
  0.0,
  0.0;

BuildingSurface:Detailed,
  Floor,
  Floor,
  Wall Construction,
  ZONE ONE,
  ,
  Outdoors,
  ,
  NoSun,
  NoWind,
  1.0,
  4,
  0,1,0,
  1,1,0,
  1,0,0,
  0,0,0;

BuildingSurface:Detailed,
  Roof,
  Roof,
  Wall Construction,
  ZONE ONE,
  ,
  Outdoors,
  ,
  NoSun,
  NoWind,
  0.0,
  4,
  1,0,1,
  1,1,1,
  0,1,1,
  0,0,1;

BuildingSurface:Detailed,
  Wall X0,
  Wall,
  Wall Construction,
  ZONE ONE,
  ,
  Outdoors,
  ,
  NoSun,
  NoWind,
  0.5,
  4,
  0,0,0,
  0,1,0,
  0,1,1,
  0,0,1;

BuildingSurface:Detailed,
  Wall X1,
  Wall,
  Wall Construction,
  ZONE ONE,
  ,
  Outdoors,
  ,
  NoSun,
  NoWind,
  0.5,
  4,
  1,0,0,
  1,0,1,
  1,1,1,
  1,1,0;

BuildingSurface:Detailed,
  Wall Y0,
  Wall,
  Wall Construction,
  ZONE ONE,
  ,
  Outdoors,
  ,
  NoSun,
  NoWind,
  0.5,
  4,
  0,0,0,
  0,0,1,
  1,0,1,
  1,0,0;

BuildingSurface:Detailed,
  Wall Y1,
  Wall,
  Wall Construction,
  ZONE ONE,
  ,
  Outdoors,
  ,
  NoSun,
  NoWind,
  0.5,
  4,
  0,1,0,
  1,1,0,
  1,1,1,
  0,1,1;

Output:Variable,ZONE ONE,Zone Mean Air Temperature,Hourly;
Output:Variable,ZONE ONE,Zone Air Heat Balance Internal Convective Heat Gain Rate,Hourly;
