LOCATION,FMU Import Schedule Initial Value Exact Fixture,CO,USA,Synthetic,999999,39.74,-105.18,-7.0,1829.0
DESIGN CONDITIONS,0
TYPICAL/EXTREME PERIODS,0
GROUND TEMPERATURES,0
HOLIDAYS/DAYLIGHT SAVINGS,No,0,0,0
COMMENTS 1,Deterministic one-day FMU Import To Schedule inactive initial-value fixture
COMMENTS 2,Weather values are constant because only schedule values are compared
DATA PERIODS,1,1,Data,Thursday,1/1,1/1
2032,1,1,1,60,?9?9?9?9E0?9?9?9?9?9?9?9?9?9?9?9?9?9?9?9*9*9?9*9*9,10.0,5.0,50,80600,0,0,250,0,0,0,0,0,0,0,180,2.0,5,5,20.0,7777,9,999999999,0,0.0000,0,0,0.000,0.0,0.0
2032,1,1,2,60,?9?9?9?9E0?9?9?9?9?9?9?9?9?9?9?9?9?9?9?9*9*9?9*9*9,10.0,5.0,50,80600,0,0,250,0,0,0,0,0,0,0,180,2.0,5,5,20.0,7777,9,999999999,0,0.0000,0,0,0.000,0.0,0.0
2032,1,1,3,60,?9?9?9?9E0?9?9?9?9?9?9?9?9?9?9?9?9?9?9?9*9*9?9*9*9,10.0,5.0,50,80600,0,0,250,0,0,0,0,0,0,0,180,2.0,5,5,20.0,7777,9,999999999,0,0.0000,0,0,0.000,0.0,0.0
2032,1,1,4,60,?9?9?9?9E0?9?9?9?9?9?9?9?9?9?9?9?9?9?9?9*9*9?9*9*9,10.0,5.0,50,80600,0,0,250,0,0,0,0,0,0,0,180,2.0,5,5,20.0,7777,9,999999999,0,0.0000,0,0,0.000,0.0,0.0
2032,1,1,5,60,?9?9?9?9E0?9?9?9?9?9?9?9?9?9?9?9?9?9?9?9*9*9?9*9*9,10.0,5.0,50,80600,0,0,250,0,0,0,0,0,0,0,180,2.0,5,5,20.0,7777,9,999999999,0,0.0000,0,0,0.000,0.0,0.0
2032,1,1,6,60,?9?9?9?9E0?9?9?9?9?9?9?9?9?9?9?9?9?9?9?9*9*9?9*9*9,10.0,5.0,50,80600,0,0,250,0,0,0,0,0,0,0,180,2.0,5,5,20.0,7777,9,999999999,0,0.0000,0,0,0.000,0.0,0.0
2032,1,1,7,60,?9?9?9?9E0?9?9?9?9?9?9?9?9?9?9?9?9?9?9?9*9*9?9*9*9,10.0,5.0,50,80600,0,0,250,0,0,0,0,0,0,0,180,2.0,5,5,20.0,7777,9,999999999,0,0.0000,0,0,0.000,0.0,0.0
2032,1,1,8,60,?9?9?9?9E0?9?9?9?9?9?9?9?9?9?9?9?9?9?9?9*9*9?9*9*9,10.0,5.0,50,80600,0,0,250,0,0,0,0,0,0,0,180,2.0,5,5,20.0,7777,9,999999999,0,0.0000,0,0,0.000,0.0,0.0
2032,1,1,9,60,?9?9?9?9E0?9?9?9?9?9?9?9?9?9?9?9?9?9?9?9*9*9?9*9*9,10.0,5.0,50,80600,0,0,250,0,0,0,0,0,0,0,180,2.0,5,5,20.0,7777,9,999999999,0,0.0000,0,0,0.000,0.0,0.0
2032,1,1,10,60,?9?9?9?9E0?9?9?9?9?9?9?9?9?9?9?9?9?9?9?9*9*9?9*9*9,10.0,5.0,50,80600,0,0,250,0,0,0,0,0,0,0,180,2.0,5,5,20.0,7777,9,999999999,0,0.0000,0,0,0.000,0.0,0.0
2032,1,1,11,60,?9?9?9?9E0?9?9?9?9?9?9?9?9?9?9?9?9?9?9?9*9*9?9*9*9,10.0,5.0,50,80600,0,0,250,0,0,0,0,0,0,0,180,2.0,5,5,20.0,7777,9,999999999,0,0.0000,0,0,0.000,0.0,0.0
2032,1,1,12,60,?9?9?9?9E0?9?9?9?9?9?9?9?9?9?9?9?9?9?9?9*9*9?9*9*9,10.0,5.0,50,80600,0,0,250,0,0,0,0,0,0,0,180,2.0,5,5,20.0,7777,9,999999999,0,0.0000,0,0,0.000,0.0,0.0
2032,1,1,13,60,?9?9?9?9E0?9?9?9?9?9?9?9?9?9?9?9?9?9?9?9*9*9?9*9*9,10.0,5.0,50,80600,0,0,250,0,0,0,0,0,0,0,180,2.0,5,5,20.0,7777,9,999999999,0,0.0000,0,0,0.000,0.0,0.0
2032,1,1,14,60,?9?9?9?9E0?9?9?9?9?9?9?9?9?9?9?9?9?9?9?9*9*9?9*9*9,10.0,5.0,50,80600,0,0,250,0,0,0,0,0,0,0,180,2.0,5,5,20.0,7777,9,999999999,0,0.0000,0,0,0.000,0.0,0.0
2032,1,1,15,60,?9?9?9?9E0?9?9?9?9?9?9?9?9?9?9?9?9?9?9?9*9*9?9*9*9,10.0,5.0,50,80600,0,0,250,0,0,0,0,0,0,0,180,2.0,5,5,20.0,7777,9,999999999,0,0.0000,0,0,0.000,0.0,0.0
2032,1,1,16,60,?9?9?9?9E0?9?9?9?9?9?9?9?9?9?9?9?9?9?9?9*9*9?9*9*9,10.0,5.0,50,80600,0,0,250,0,0,0,0,0,0,0,180,2.0,5,5,20.0,7777,9,999999999,0,0.0000,0,0,0.000,0.0,0.0
2032,1,1,17,60,?9?9?9?9E0?9?9?9?9?9?9?9?9?9?9?9?9?9?9?9*9*9?9*9*9,10.0,5.0,50,80600,0,0,250,0,0,0,0,0,0,0,180,2.0,5,5,20.0,7777,9,999999999,0,0.0000,0,0,0.000,0.0,0.0
2032,1,1,18,60,?9?9?9?9E0?9?9?9?9?9?9?9?9?9?9?9?9?9?9?9*9*9?9*9*9,10.0,5.0,50,80600,0,0,250,0,0,0,0,0,0,0,180,2.0,5,5,20.0,7777,9,999999999,0,0.0000,0,0,0.000,0.0,0.0
2032,1,1,19,60,?9?9?9?9E0?9?9?9?9?9?9?9?9?9?9?9?9?9?9?9*9*9?9*9*9,10.0,5.0,50,80600,0,0,250,0,0,0,0,0,0,0,180,2.0,5,5,20.0,7777,9,999999999,0,0.0000,0,0,0.000,0.0,0.0
2032,1,1,20,60,?9?9?9?9E0?9?9?9?9?9?9?9?9?9?9?9?9?9?9?9*9*9?9*9*9,10.0,5.0,50,80600,0,0,250,0,0,0,0,0,0,0,180,2.0,5,5,20.0,7777,9,999999999,0,0.0000,0,0,0.000,0.0,0.0
2032,1,1,21,60,?9?9?9?9E0?9?9?9?9?9?9?9?9?9?9?9?9?9?9?9*9*9?9*9*9,10.0,5.0,50,80600,0,0,250,0,0,0,0,0,0,0,180,2.0,5,5,20.0,7777,9,999999999,0,0.0000,0,0,0.000,0.0,0.0
2032,1,1,22,60,?9?9?9?9E0?9?9?9?9?9?9?9?9?9?9?9?9?9?9?9*9*9?9*9*9,10.0,5.0,50,80600,0,0,250,0,0,0,0,0,0,0,180,2.0,5,5,20.0,7777,9,999999999,0,0.0000,0,0,0.000,0.0,0.0
2032,1,1,23,60,?9?9?9?9E0?9?9?9?9?9?9?9?9?9?9?9?9?9?9?9*9*9?9*9*9,10.0,5.0,50,80600,0,0,250,0,0,0,0,0,0,0,180,2.0,5,5,20.0,7777,9,999999999,0,0.0000,0,0,0.000,0.0,0.0
2032,1,1,24,60,?9?9?9?9E0?9?9?9?9?9?9?9?9?9?9?9?9?9?9?9*9*9?9*9*9,10.0,5.0,50,80600,0,0,250,0,0,0,0,0,0,0,180,2.0,5,5,20.0,7777,9,999999999,0,0.0000,0,0,0.000,0.0,0.0
