Version,26.1;

Building,
  Schedule Week Compact Day Types Exact Fixture,
  0.0,
  Suburbs,
  0.04,
  0.4,
  FullExterior,
  25,
  6;

Timestep,4;

GlobalGeometryRules,
  UpperLeftCorner,
  CounterClockWise,
  World;

RunPeriod,
  Schedule Week Compact Day Types Run Period,
  1,
  1,
  2032,
  1,
  7,
  2032,
  Thursday,
  No,
  No,
  No,
  No,
  No,
  No;

RunPeriodControl:SpecialDays,
  Week Compact Holiday,
  1/2,
  1,
  Holiday;

RunPeriodControl:SpecialDays,
  Week Compact Summer Design Day,
  1/4,
  1,
  SummerDesignDay;

RunPeriodControl:SpecialDays,
  Week Compact Winter Design Day,
  1/5,
  1,
  WinterDesignDay;

RunPeriodControl:SpecialDays,
  Week Compact Custom Day 1,
  1/6,
  1,
  CustomDay1;

RunPeriodControl:SpecialDays,
  Week Compact Custom Day 2,
  1/7,
  1,
  CustomDay2;

ScheduleTypeLimits,
  Any Number;

Schedule:Day:Hourly,
  Regular Weekday Hourly,
  Any Number,
  11,
  11,
  11,
  11,
  11,
  11,
  11,
  11,
  11,
  11,
  11,
  11,
  11,
  11,
  11,
  11,
  11,
  11,
  11,
  11,
  11,
  11,
  11,
  11;

Schedule:Day:Interval,
  Regular Weekend Interval,
  Any Number,
  No,
  Until: 00:15,
  22,
  Until: 24:00,
  22;

Schedule:Day:List,
  Holiday List,
  Any Number,
  No,
  20,
  33,
  33,
  33,
  33,
  33,
  33,
  33,
  33,
  33,
  33,
  33,
  33,
  33,
  33,
  33,
  33,
  33,
  33,
  33,
  33,
  33,
  33,
  33,
  33,
  33,
  33,
  33,
  33,
  33,
  33,
  33,
  33,
  33,
  33,
  33,
  33,
  33,
  33,
  33,
  33,
  33,
  33,
  33,
  33,
  33,
  33,
  33,
  33,
  33,
  33,
  33,
  33,
  33,
  33,
  33,
  33,
  33,
  33,
  33,
  33,
  33,
  33,
  33,
  33,
  33,
  33,
  33,
  33,
  33,
  33,
  33,
  33;

Schedule:Day:Hourly,
  Summer Design Hourly,
  Any Number,
  44,
  44,
  44,
  44,
  44,
  44,
  44,
  44,
  44,
  44,
  44,
  44,
  44,
  44,
  44,
  44,
  44,
  44,
  44,
  44,
  44,
  44,
  44,
  44;

Schedule:Day:Interval,
  Winter Design Interval,
  Any Number,
  No,
  Until: 00:15,
  55,
  Until: 24:00,
  55;

Schedule:Day:List,
  Custom Day 1 List,
  Any Number,
  No,
  20,
  66,
  66,
  66,
  66,
  66,
  66,
  66,
  66,
  66,
  66,
  66,
  66,
  66,
  66,
  66,
  66,
  66,
  66,
  66,
  66,
  66,
  66,
  66,
  66,
  66,
  66,
  66,
  66,
  66,
  66,
  66,
  66,
  66,
  66,
  66,
  66,
  66,
  66,
  66,
  66,
  66,
  66,
  66,
  66,
  66,
  66,
  66,
  66,
  66,
  66,
  66,
  66,
  66,
  66,
  66,
  66,
  66,
  66,
  66,
  66,
  66,
  66,
  66,
  66,
  66,
  66,
  66,
  66,
  66,
  66,
  66,
  66;

Schedule:Day:Hourly,
  Custom Day 2 Hourly,
  Any Number,
  77,
  77,
  77,
  77,
  77,
  77,
  77,
  77,
  77,
  77,
  77,
  77,
  77,
  77,
  77,
  77,
  77,
  77,
  77,
  77,
  77,
  77,
  77,
  77;

Schedule:Week:Compact,
  Week Compact Day Types Week,
  For: Weekdays,
  Regular Weekday Hourly,
  For: Weekends,
  Regular Weekend Interval,
  For: Holiday,
  Holiday List,
  For: SummerDesignDay,
  Summer Design Hourly,
  For: WinterDesignDay,
  Winter Design Interval,
  For: CustomDay1,
  Custom Day 1 List,
  For: CustomDay2,
  Custom Day 2 Hourly;

Schedule:Year,
  Week Compact Day Types Schedule,
  Any Number,
  Week Compact Day Types Week,
  1,
  1,
  12,
  31;

Output:Schedules,
  Timestep;

Output:Variable,
  WEEK COMPACT DAY TYPES SCHEDULE,
  Schedule Value,
  Timestep;
