LOCATION,Calendar EPW DST Southern Wrap Exact Fixture,CO,USA,Synthetic,999999,39.74,-105.18,-7.0,1829.0
DESIGN CONDITIONS,0
TYPICAL/EXTREME PERIODS,0
GROUND TEMPERATURES,0
HOLIDAYS/DAYLIGHT SAVINGS,Yes,Last Sunday in October,Last Sunday in March,0
COMMENTS 1,Deterministic three-day leap-year weather fixture for the end side of one southern daylight-saving wrap pair
COMMENTS 2,Weather values are constant because only Site Daylight Saving Time Status is claimed
DATA PERIODS,1,1,Data,Saturday,3/27,3/29
2032,3,27,1,60,?9?9?9?9E0?9?9?9?9?9?9?9?9?9?9?9?9?9?9?9*9*9?9*9*9,10.0,5.0,50,80600,0,0,250,0,0,0,0,0,0,0,180,2.0,5,5,20.0,7777,9,999999999,0,0.0000,0,0,0.000,0.0,0.0
2032,3,27,2,60,?9?9?9?9E0?9?9?9?9?9?9?9?9?9?9?9?9?9?9?9*9*9?9*9*9,10.0,5.0,50,80600,0,0,250,0,0,0,0,0,0,0,180,2.0,5,5,20.0,7777,9,999999999,0,0.0000,0,0,0.000,0.0,0.0
2032,3,27,3,60,?9?9?9?9E0?9?9?9?9?9?9?9?9?9?9?9?9?9?9?9*9*9?9*9*9,10.0,5.0,50,80600,0,0,250,0,0,0,0,0,0,0,180,2.0,5,5,20.0,7777,9,999999999,0,0.0000,0,0,0.000,0.0,0.0
2032,3,27,4,60,?9?9?9?9E0?9?9?9?9?9?9?9?9?9?9?9?9?9?9?9*9*9?9*9*9,10.0,5.0,50,80600,0,0,250,0,0,0,0,0,0,0,180,2.0,5,5,20.0,7777,9,999999999,0,0.0000,0,0,0.000,0.0,0.0
2032,3,27,5,60,?9?9?9?9E0?9?9?9?9?9?9?9?9?9?9?9?9?9?9?9*9*9?9*9*9,10.0,5.0,50,80600,0,0,250,0,0,0,0,0,0,0,180,2.0,5,5,20.0,7777,9,999999999,0,0.0000,0,0,0.000,0.0,0.0
2032,3,27,6,60,?9?9?9?9E0?9?9?9?9?9?9?9?9?9?9?9?9?9?9?9*9*9?9*9*9,10.0,5.0,50,80600,0,0,250,0,0,0,0,0,0,0,180,2.0,5,5,20.0,7777,9,999999999,0,0.0000,0,0,0.000,0.0,0.0
2032,3,27,7,60,?9?9?9?9E0?9?9?9?9?9?9?9?9?9?9?9?9?9?9?9*9*9?9*9*9,10.0,5.0,50,80600,0,0,250,0,0,0,0,0,0,0,180,2.0,5,5,20.0,7777,9,999999999,0,0.0000,0,0,0.000,0.0,0.0
2032,3,27,8,60,?9?9?9?9E0?9?9?9?9?9?9?9?9?9?9?9?9?9?9?9*9*9?9*9*9,10.0,5.0,50,80600,0,0,250,0,0,0,0,0,0,0,180,2.0,5,5,20.0,7777,9,999999999,0,0.0000,0,0,0.000,0.0,0.0
2032,3,27,9,60,?9?9?9?9E0?9?9?9?9?9?9?9?9?9?9?9?9?9?9?9*9*9?9*9*9,10.0,5.0,50,80600,0,0,250,0,0,0,0,0,0,0,180,2.0,5,5,20.0,7777,9,999999999,0,0.0000,0,0,0.000,0.0,0.0
2032,3,27,10,60,?9?9?9?9E0?9?9?9?9?9?9?9?9?9?9?9?9?9?9?9*9*9?9*9*9,10.0,5.0,50,80600,0,0,250,0,0,0,0,0,0,0,180,2.0,5,5,20.0,7777,9,999999999,0,0.0000,0,0,0.000,0.0,0.0
2032,3,27,11,60,?9?9?9?9E0?9?9?9?9?9?9?9?9?9?9?9?9?9?9?9*9*9?9*9*9,10.0,5.0,50,80600,0,0,250,0,0,0,0,0,0,0,180,2.0,5,5,20.0,7777,9,999999999,0,0.0000,0,0,0.000,0.0,0.0
2032,3,27,12,60,?9?9?9?9E0?9?9?9?9?9?9?9?9?9?9?9?9?9?9?9*9*9?9*9*9,10.0,5.0,50,80600,0,0,250,0,0,0,0,0,0,0,180,2.0,5,5,20.0,7777,9,999999999,0,0.0000,0,0,0.000,0.0,0.0
2032,3,27,13,60,?9?9?9?9E0?9?9?9?9?9?9?9?9?9?9?9?9?9?9?9*9*9?9*9*9,10.0,5.0,50,80600,0,0,250,0,0,0,0,0,0,0,180,2.0,5,5,20.0,7777,9,999999999,0,0.0000,0,0,0.000,0.0,0.0
2032,3,27,14,60,?9?9?9?9E0?9?9?9?9?9?9?9?9?9?9?9?9?9?9?9*9*9?9*9*9,10.0,5.0,50,80600,0,0,250,0,0,0,0,0,0,0,180,2.0,5,5,20.0,7777,9,999999999,0,0.0000,0,0,0.000,0.0,0.0
2032,3,27,15,60,?9?9?9?9E0?9?9?9?9?9?9?9?9?9?9?9?9?9?9?9*9*9?9*9*9,10.0,5.0,50,80600,0,0,250,0,0,0,0,0,0,0,180,2.0,5,5,20.0,7777,9,999999999,0,0.0000,0,0,0.000,0.0,0.0
2032,3,27,16,60,?9?9?9?9E0?9?9?9?9?9?9?9?9?9?9?9?9?9?9?9*9*9?9*9*9,10.0,5.0,50,80600,0,0,250,0,0,0,0,0,0,0,180,2.0,5,5,20.0,7777,9,999999999,0,0.0000,0,0,0.000,0.0,0.0
2032,3,27,17,60,?9?9?9?9E0?9?9?9?9?9?9?9?9?9?9?9?9?9?9?9*9*9?9*9*9,10.0,5.0,50,80600,0,0,250,0,0,0,0,0,0,0,180,2.0,5,5,20.0,7777,9,999999999,0,0.0000,0,0,0.000,0.0,0.0
2032,3,27,18,60,?9?9?9?9E0?9?9?9?9?9?9?9?9?9?9?9?9?9?9?9*9*9?9*9*9,10.0,5.0,50,80600,0,0,250,0,0,0,0,0,0,0,180,2.0,5,5,20.0,7777,9,999999999,0,0.0000,0,0,0.000,0.0,0.0
2032,3,27,19,60,?9?9?9?9E0?9?9?9?9?9?9?9?9?9?9?9?9?9?9?9*9*9?9*9*9,10.0,5.0,50,80600,0,0,250,0,0,0,0,0,0,0,180,2.0,5,5,20.0,7777,9,999999999,0,0.0000,0,0,0.000,0.0,0.0
2032,3,27,20,60,?9?9?9?9E0?9?9?9?9?9?9?9?9?9?9?9?9?9?9?9*9*9?9*9*9,10.0,5.0,50,80600,0,0,250,0,0,0,0,0,0,0,180,2.0,5,5,20.0,7777,9,999999999,0,0.0000,0,0,0.000,0.0,0.0
2032,3,27,21,60,?9?9?9?9E0?9?9?9?9?9?9?9?9?9?9?9?9?9?9?9*9*9?9*9*9,10.0,5.0,50,80600,0,0,250,0,0,0,0,0,0,0,180,2.0,5,5,20.0,7777,9,999999999,0,0.0000,0,0,0.000,0.0,0.0
2032,3,27,22,60,?9?9?9?9E0?9?9?9?9?9?9?9?9?9?9?9?9?9?9?9*9*9?9*9*9,10.0,5.0,50,80600,0,0,250,0,0,0,0,0,0,0,180,2.0,5,5,20.0,7777,9,999999999,0,0.0000,0,0,0.000,0.0,0.0
2032,3,27,23,60,?9?9?9?9E0?9?9?9?9?9?9?9?9?9?9?9?9?9?9?9*9*9?9*9*9,10.0,5.0,50,80600,0,0,250,0,0,0,0,0,0,0,180,2.0,5,5,20.0,7777,9,999999999,0,0.0000,0,0,0.000,0.0,0.0
2032,3,27,24,60,?9?9?9?9E0?9?9?9?9?9?9?9?9?9?9?9?9?9?9?9*9*9?9*9*9,10.0,5.0,50,80600,0,0,250,0,0,0,0,0,0,0,180,2.0,5,5,20.0,7777,9,999999999,0,0.0000,0,0,0.000,0.0,0.0
2032,3,28,1,60,?9?9?9?9E0?9?9?9?9?9?9?9?9?9?9?9?9?9?9?9*9*9?9*9*9,10.0,5.0,50,80600,0,0,250,0,0,0,0,0,0,0,180,2.0,5,5,20.0,7777,9,999999999,0,0.0000,0,0,0.000,0.0,0.0
2032,3,28,2,60,?9?9?9?9E0?9?9?9?9?9?9?9?9?9?9?9?9?9?9?9*9*9?9*9*9,10.0,5.0,50,80600,0,0,250,0,0,0,0,0,0,0,180,2.0,5,5,20.0,7777,9,999999999,0,0.0000,0,0,0.000,0.0,0.0
2032,3,28,3,60,?9?9?9?9E0?9?9?9?9?9?9?9?9?9?9?9?9?9?9?9*9*9?9*9*9,10.0,5.0,50,80600,0,0,250,0,0,0,0,0,0,0,180,2.0,5,5,20.0,7777,9,999999999,0,0.0000,0,0,0.000,0.0,0.0
2032,3,28,4,60,?9?9?9?9E0?9?9?9?9?9?9?9?9?9?9?9?9?9?9?9*9*9?9*9*9,10.0,5.0,50,80600,0,0,250,0,0,0,0,0,0,0,180,2.0,5,5,20.0,7777,9,999999999,0,0.0000,0,0,0.000,0.0,0.0
2032,3,28,5,60,?9?9?9?9E0?9?9?9?9?9?9?9?9?9?9?9?9?9?9?9*9*9?9*9*9,10.0,5.0,50,80600,0,0,250,0,0,0,0,0,0,0,180,2.0,5,5,20.0,7777,9,999999999,0,0.0000,0,0,0.000,0.0,0.0
2032,3,28,6,60,?9?9?9?9E0?9?9?9?9?9?9?9?9?9?9?9?9?9?9?9*9*9?9*9*9,10.0,5.0,50,80600,0,0,250,0,0,0,0,0,0,0,180,2.0,5,5,20.0,7777,9,999999999,0,0.0000,0,0,0.000,0.0,0.0
2032,3,28,7,60,?9?9?9?9E0?9?9?9?9?9?9?9?9?9?9?9?9?9?9?9*9*9?9*9*9,10.0,5.0,50,80600,0,0,250,0,0,0,0,0,0,0,180,2.0,5,5,20.0,7777,9,999999999,0,0.0000,0,0,0.000,0.0,0.0
2032,3,28,8,60,?9?9?9?9E0?9?9?9?9?9?9?9?9?9?9?9?9?9?9?9*9*9?9*9*9,10.0,5.0,50,80600,0,0,250,0,0,0,0,0,0,0,180,2.0,5,5,20.0,7777,9,999999999,0,0.0000,0,0,0.000,0.0,0.0
2032,3,28,9,60,?9?9?9?9E0?9?9?9?9?9?9?9?9?9?9?9?9?9?9?9*9*9?9*9*9,10.0,5.0,50,80600,0,0,250,0,0,0,0,0,0,0,180,2.0,5,5,20.0,7777,9,999999999,0,0.0000,0,0,0.000,0.0,0.0
2032,3,28,10,60,?9?9?9?9E0?9?9?9?9?9?9?9?9?9?9?9?9?9?9?9*9*9?9*9*9,10.0,5.0,50,80600,0,0,250,0,0,0,0,0,0,0,180,2.0,5,5,20.0,7777,9,999999999,0,0.0000,0,0,0.000,0.0,0.0
2032,3,28,11,60,?9?9?9?9E0?9?9?9?9?9?9?9?9?9?9?9?9?9?9?9*9*9?9*9*9,10.0,5.0,50,80600,0,0,250,0,0,0,0,0,0,0,180,2.0,5,5,20.0,7777,9,999999999,0,0.0000,0,0,0.000,0.0,0.0
2032,3,28,12,60,?9?9?9?9E0?9?9?9?9?9?9?9?9?9?9?9?9?9?9?9*9*9?9*9*9,10.0,5.0,50,80600,0,0,250,0,0,0,0,0,0,0,180,2.0,5,5,20.0,7777,9,999999999,0,0.0000,0,0,0.000,0.0,0.0
2032,3,28,13,60,?9?9?9?9E0?9?9?9?9?9?9?9?9?9?9?9?9?9?9?9*9*9?9*9*9,10.0,5.0,50,80600,0,0,250,0,0,0,0,0,0,0,180,2.0,5,5,20.0,7777,9,999999999,0,0.0000,0,0,0.000,0.0,0.0
2032,3,28,14,60,?9?9?9?9E0?9?9?9?9?9?9?9?9?9?9?9?9?9?9?9*9*9?9*9*9,10.0,5.0,50,80600,0,0,250,0,0,0,0,0,0,0,180,2.0,5,5,20.0,7777,9,999999999,0,0.0000,0,0,0.000,0.0,0.0
2032,3,28,15,60,?9?9?9?9E0?9?9?9?9?9?9?9?9?9?9?9?9?9?9?9*9*9?9*9*9,10.0,5.0,50,80600,0,0,250,0,0,0,0,0,0,0,180,2.0,5,5,20.0,7777,9,999999999,0,0.0000,0,0,0.000,0.0,0.0
2032,3,28,16,60,?9?9?9?9E0?9?9?9?9?9?9?9?9?9?9?9?9?9?9?9*9*9?9*9*9,10.0,5.0,50,80600,0,0,250,0,0,0,0,0,0,0,180,2.0,5,5,20.0,7777,9,999999999,0,0.0000,0,0,0.000,0.0,0.0
2032,3,28,17,60,?9?9?9?9E0?9?9?9?9?9?9?9?9?9?9?9?9?9?9?9*9*9?9*9*9,10.0,5.0,50,80600,0,0,250,0,0,0,0,0,0,0,180,2.0,5,5,20.0,7777,9,999999999,0,0.0000,0,0,0.000,0.0,0.0
2032,3,28,18,60,?9?9?9?9E0?9?9?9?9?9?9?9?9?9?9?9?9?9?9?9*9*9?9*9*9,10.0,5.0,50,80600,0,0,250,0,0,0,0,0,0,0,180,2.0,5,5,20.0,7777,9,999999999,0,0.0000,0,0,0.000,0.0,0.0
2032,3,28,19,60,?9?9?9?9E0?9?9?9?9?9?9?9?9?9?9?9?9?9?9?9*9*9?9*9*9,10.0,5.0,50,80600,0,0,250,0,0,0,0,0,0,0,180,2.0,5,5,20.0,7777,9,999999999,0,0.0000,0,0,0.000,0.0,0.0
2032,3,28,20,60,?9?9?9?9E0?9?9?9?9?9?9?9?9?9?9?9?9?9?9?9*9*9?9*9*9,10.0,5.0,50,80600,0,0,250,0,0,0,0,0,0,0,180,2.0,5,5,20.0,7777,9,999999999,0,0.0000,0,0,0.000,0.0,0.0
2032,3,28,21,60,?9?9?9?9E0?9?9?9?9?9?9?9?9?9?9?9?9?9?9?9*9*9?9*9*9,10.0,5.0,50,80600,0,0,250,0,0,0,0,0,0,0,180,2.0,5,5,20.0,7777,9,999999999,0,0.0000,0,0,0.000,0.0,0.0
2032,3,28,22,60,?9?9?9?9E0?9?9?9?9?9?9?9?9?9?9?9?9?9?9?9*9*9?9*9*9,10.0,5.0,50,80600,0,0,250,0,0,0,0,0,0,0,180,2.0,5,5,20.0,7777,9,999999999,0,0.0000,0,0,0.000,0.0,0.0
2032,3,28,23,60,?9?9?9?9E0?9?9?9?9?9?9?9?9?9?9?9?9?9?9?9*9*9?9*9*9,10.0,5.0,50,80600,0,0,250,0,0,0,0,0,0,0,180,2.0,5,5,20.0,7777,9,999999999,0,0.0000,0,0,0.000,0.0,0.0
2032,3,28,24,60,?9?9?9?9E0?9?9?9?9?9?9?9?9?9?9?9?9?9?9?9*9*9?9*9*9,10.0,5.0,50,80600,0,0,250,0,0,0,0,0,0,0,180,2.0,5,5,20.0,7777,9,999999999,0,0.0000,0,0,0.000,0.0,0.0
2032,3,29,1,60,?9?9?9?9E0?9?9?9?9?9?9?9?9?9?9?9?9?9?9?9*9*9?9*9*9,10.0,5.0,50,80600,0,0,250,0,0,0,0,0,0,0,180,2.0,5,5,20.0,7777,9,999999999,0,0.0000,0,0,0.000,0.0,0.0
2032,3,29,2,60,?9?9?9?9E0?9?9?9?9?9?9?9?9?9?9?9?9?9?9?9*9*9?9*9*9,10.0,5.0,50,80600,0,0,250,0,0,0,0,0,0,0,180,2.0,5,5,20.0,7777,9,999999999,0,0.0000,0,0,0.000,0.0,0.0
2032,3,29,3,60,?9?9?9?9E0?9?9?9?9?9?9?9?9?9?9?9?9?9?9?9*9*9?9*9*9,10.0,5.0,50,80600,0,0,250,0,0,0,0,0,0,0,180,2.0,5,5,20.0,7777,9,999999999,0,0.0000,0,0,0.000,0.0,0.0
2032,3,29,4,60,?9?9?9?9E0?9?9?9?9?9?9?9?9?9?9?9?9?9?9?9*9*9?9*9*9,10.0,5.0,50,80600,0,0,250,0,0,0,0,0,0,0,180,2.0,5,5,20.0,7777,9,999999999,0,0.0000,0,0,0.000,0.0,0.0
2032,3,29,5,60,?9?9?9?9E0?9?9?9?9?9?9?9?9?9?9?9?9?9?9?9*9*9?9*9*9,10.0,5.0,50,80600,0,0,250,0,0,0,0,0,0,0,180,2.0,5,5,20.0,7777,9,999999999,0,0.0000,0,0,0.000,0.0,0.0
2032,3,29,6,60,?9?9?9?9E0?9?9?9?9?9?9?9?9?9?9?9?9?9?9?9*9*9?9*9*9,10.0,5.0,50,80600,0,0,250,0,0,0,0,0,0,0,180,2.0,5,5,20.0,7777,9,999999999,0,0.0000,0,0,0.000,0.0,0.0
2032,3,29,7,60,?9?9?9?9E0?9?9?9?9?9?9?9?9?9?9?9?9?9?9?9*9*9?9*9*9,10.0,5.0,50,80600,0,0,250,0,0,0,0,0,0,0,180,2.0,5,5,20.0,7777,9,999999999,0,0.0000,0,0,0.000,0.0,0.0
2032,3,29,8,60,?9?9?9?9E0?9?9?9?9?9?9?9?9?9?9?9?9?9?9?9*9*9?9*9*9,10.0,5.0,50,80600,0,0,250,0,0,0,0,0,0,0,180,2.0,5,5,20.0,7777,9,999999999,0,0.0000,0,0,0.000,0.0,0.0
2032,3,29,9,60,?9?9?9?9E0?9?9?9?9?9?9?9?9?9?9?9?9?9?9?9*9*9?9*9*9,10.0,5.0,50,80600,0,0,250,0,0,0,0,0,0,0,180,2.0,5,5,20.0,7777,9,999999999,0,0.0000,0,0,0.000,0.0,0.0
2032,3,29,10,60,?9?9?9?9E0?9?9?9?9?9?9?9?9?9?9?9?9?9?9?9*9*9?9*9*9,10.0,5.0,50,80600,0,0,250,0,0,0,0,0,0,0,180,2.0,5,5,20.0,7777,9,999999999,0,0.0000,0,0,0.000,0.0,0.0
2032,3,29,11,60,?9?9?9?9E0?9?9?9?9?9?9?9?9?9?9?9?9?9?9?9*9*9?9*9*9,10.0,5.0,50,80600,0,0,250,0,0,0,0,0,0,0,180,2.0,5,5,20.0,7777,9,999999999,0,0.0000,0,0,0.000,0.0,0.0
2032,3,29,12,60,?9?9?9?9E0?9?9?9?9?9?9?9?9?9?9?9?9?9?9?9*9*9?9*9*9,10.0,5.0,50,80600,0,0,250,0,0,0,0,0,0,0,180,2.0,5,5,20.0,7777,9,999999999,0,0.0000,0,0,0.000,0.0,0.0
2032,3,29,13,60,?9?9?9?9E0?9?9?9?9?9?9?9?9?9?9?9?9?9?9?9*9*9?9*9*9,10.0,5.0,50,80600,0,0,250,0,0,0,0,0,0,0,180,2.0,5,5,20.0,7777,9,999999999,0,0.0000,0,0,0.000,0.0,0.0
2032,3,29,14,60,?9?9?9?9E0?9?9?9?9?9?9?9?9?9?9?9?9?9?9?9*9*9?9*9*9,10.0,5.0,50,80600,0,0,250,0,0,0,0,0,0,0,180,2.0,5,5,20.0,7777,9,999999999,0,0.0000,0,0,0.000,0.0,0.0
2032,3,29,15,60,?9?9?9?9E0?9?9?9?9?9?9?9?9?9?9?9?9?9?9?9*9*9?9*9*9,10.0,5.0,50,80600,0,0,250,0,0,0,0,0,0,0,180,2.0,5,5,20.0,7777,9,999999999,0,0.0000,0,0,0.000,0.0,0.0
2032,3,29,16,60,?9?9?9?9E0?9?9?9?9?9?9?9?9?9?9?9?9?9?9?9*9*9?9*9*9,10.0,5.0,50,80600,0,0,250,0,0,0,0,0,0,0,180,2.0,5,5,20.0,7777,9,999999999,0,0.0000,0,0,0.000,0.0,0.0
2032,3,29,17,60,?9?9?9?9E0?9?9?9?9?9?9?9?9?9?9?9?9?9?9?9*9*9?9*9*9,10.0,5.0,50,80600,0,0,250,0,0,0,0,0,0,0,180,2.0,5,5,20.0,7777,9,999999999,0,0.0000,0,0,0.000,0.0,0.0
2032,3,29,18,60,?9?9?9?9E0?9?9?9?9?9?9?9?9?9?9?9?9?9?9?9*9*9?9*9*9,10.0,5.0,50,80600,0,0,250,0,0,0,0,0,0,0,180,2.0,5,5,20.0,7777,9,999999999,0,0.0000,0,0,0.000,0.0,0.0
2032,3,29,19,60,?9?9?9?9E0?9?9?9?9?9?9?9?9?9?9?9?9?9?9?9*9*9?9*9*9,10.0,5.0,50,80600,0,0,250,0,0,0,0,0,0,0,180,2.0,5,5,20.0,7777,9,999999999,0,0.0000,0,0,0.000,0.0,0.0
2032,3,29,20,60,?9?9?9?9E0?9?9?9?9?9?9?9?9?9?9?9?9?9?9?9*9*9?9*9*9,10.0,5.0,50,80600,0,0,250,0,0,0,0,0,0,0,180,2.0,5,5,20.0,7777,9,999999999,0,0.0000,0,0,0.000,0.0,0.0
2032,3,29,21,60,?9?9?9?9E0?9?9?9?9?9?9?9?9?9?9?9?9?9?9?9*9*9?9*9*9,10.0,5.0,50,80600,0,0,250,0,0,0,0,0,0,0,180,2.0,5,5,20.0,7777,9,999999999,0,0.0000,0,0,0.000,0.0,0.0
2032,3,29,22,60,?9?9?9?9E0?9?9?9?9?9?9?9?9?9?9?9?9?9?9?9*9*9?9*9*9,10.0,5.0,50,80600,0,0,250,0,0,0,0,0,0,0,180,2.0,5,5,20.0,7777,9,999999999,0,0.0000,0,0,0.000,0.0,0.0
2032,3,29,23,60,?9?9?9?9E0?9?9?9?9?9?9?9?9?9?9?9?9?9?9?9*9*9?9*9*9,10.0,5.0,50,80600,0,0,250,0,0,0,0,0,0,0,180,2.0,5,5,20.0,7777,9,999999999,0,0.0000,0,0,0.000,0.0,0.0
2032,3,29,24,60,?9?9?9?9E0?9?9?9?9?9?9?9?9?9?9?9?9?9?9?9*9*9?9*9*9,10.0,5.0,50,80600,0,0,250,0,0,0,0,0,0,0,180,2.0,5,5,20.0,7777,9,999999999,0,0.0000,0,0,0.000,0.0,0.0
