Building,
  Window Material Gas Mixture Compare,
  0.0,
  Suburbs,
  0.04,
  0.4,
  FullExterior,
  25,
  6;

BuildingSurface:Detailed,
  DISTINCTIVE GAS WINDOW HOST WALL,
  Wall,
  G OPAQUE HOST CONSTRUCTION,
  GAS TEST ZONE,
  ,
  Outdoors,
  ,
  SunExposed,
  WindExposed,
  0.5,
  4,
  0.0,
  0.0,
  3.0,
  0.0,
  0.0,
  0.0,
  4.0,
  0.0,
  0.0,
  4.0,
  0.0,
  3.0;

BuildingSurface:Detailed,
  GAS TEST EAST WALL,
  Wall,
  G OPAQUE HOST CONSTRUCTION,
  GAS TEST ZONE,
  ,
  Outdoors,
  ,
  SunExposed,
  WindExposed,
  0.5,
  4,
  4.0,
  0.0,
  3.0,
  4.0,
  0.0,
  0.0,
  4.0,
  4.0,
  0.0,
  4.0,
  4.0,
  3.0;

BuildingSurface:Detailed,
  GAS TEST FLOOR,
  Floor,
  G OPAQUE HOST CONSTRUCTION,
  GAS TEST ZONE,
  ,
  Ground,
  ,
  NoSun,
  NoWind,
  1.0,
  4,
  4.0,
  4.0,
  0.0,
  4.0,
  0.0,
  0.0,
  0.0,
  0.0,
  0.0,
  0.0,
  4.0,
  0.0;

BuildingSurface:Detailed,
  GAS TEST NORTH WALL,
  Wall,
  G OPAQUE HOST CONSTRUCTION,
  GAS TEST ZONE,
  ,
  Outdoors,
  ,
  SunExposed,
  WindExposed,
  0.5,
  4,
  4.0,
  4.0,
  3.0,
  4.0,
  4.0,
  0.0,
  0.0,
  4.0,
  0.0,
  0.0,
  4.0,
  3.0;

BuildingSurface:Detailed,
  GAS TEST ROOF,
  Roof,
  G OPAQUE HOST CONSTRUCTION,
  GAS TEST ZONE,
  ,
  Outdoors,
  ,
  SunExposed,
  WindExposed,
  0.0,
  4,
  0.0,
  4.0,
  3.0,
  0.0,
  0.0,
  3.0,
  4.0,
  0.0,
  3.0,
  4.0,
  4.0,
  3.0;

BuildingSurface:Detailed,
  GAS TEST WEST WALL,
  Wall,
  G OPAQUE HOST CONSTRUCTION,
  GAS TEST ZONE,
  ,
  Outdoors,
  ,
  SunExposed,
  WindExposed,
  0.5,
  4,
  0.0,
  4.0,
  3.0,
  0.0,
  4.0,
  0.0,
  0.0,
  0.0,
  0.0,
  0.0,
  0.0,
  3.0;

Construction,
  A AIR WINDOW CONSTRUCTION,
  DISTINCTIVE GAS TEST GLASS,
  A COUNT1 XENON MIX,
  DISTINCTIVE GAS TEST GLASS,
  B ORDER AIR ARGON MIX,
  DISTINCTIVE GAS TEST GLASS,
  C ORDER ARGON AIR MIX,
  DISTINCTIVE GAS TEST GLASS;

Construction,
  B ARGON WINDOW CONSTRUCTION,
  DISTINCTIVE GAS TEST GLASS,
  D COUNT3 ZERO THIRD MIX,
  DISTINCTIVE GAS TEST GLASS,
  E COUNT4 DUPLICATE MIX,
  DISTINCTIVE GAS TEST GLASS,
  A COUNT1 XENON MIX,
  DISTINCTIVE GAS TEST GLASS;

Construction,
  G OPAQUE HOST CONSTRUCTION,
  DISTINCTIVE GAS OPAQUE HOST MATERIAL;

FenestrationSurface:Detailed,
  DISTINCTIVE GAS TEST WINDOW,
  Window,
  A AIR WINDOW CONSTRUCTION,
  DISTINCTIVE GAS WINDOW HOST WALL,
  ,
  0.5,
  ,
  1.0,
  4,
  0.2,
  0,
  2.8,
  0.2,
  0,
  1.7,
  1.1,
  0,
  1.7,
  1.1,
  0,
  2.8;

FenestrationSurface:Detailed,
  GAS TEST ARGON WINDOW,
  Window,
  B ARGON WINDOW CONSTRUCTION,
  DISTINCTIVE GAS WINDOW HOST WALL,
  ,
  0.5,
  ,
  1.0,
  4,
  1.2,
  0,
  2.8,
  1.2,
  0,
  1.7,
  2.1,
  0,
  1.7,
  2.1,
  0,
  2.8;

GlobalGeometryRules,
  UpperLeftCorner,
  Counterclockwise,
  World;

HeatBalanceAlgorithm,
  ConductionTransferFunction;

Material,
  DISTINCTIVE GAS OPAQUE HOST MATERIAL,
  Rough,
  0.113,
  0.347,
  913.0,
  836.0,
  0.87,
  0.63,
  0.58;

Output:Constructions,
  Constructions,
  Materials;

Output:Surfaces:List,
  Details;

Output:Variable,
  *,
  Zone Mean Air Temperature,
  Hourly;

RunPeriod,
  Run Period 1,
  1,
  1,
  2013,
  1,
  1,
  2013,
  Tuesday,
  Yes,
  Yes,
  No,
  Yes,
  Yes;

SimulationControl,
  No,
  No,
  No,
  No,
  Yes,
  No;

Site:GroundTemperature:BuildingSurface,
  18,
  18,
  18,
  18,
  18,
  18,
  18,
  18,
  18,
  18,
  18,
  18;

Site:Location,
  Golden,
  39.74,
  -105.18,
  -7.0,
  1829.0;

SurfaceConvectionAlgorithm:Inside,
  TARP;

SurfaceConvectionAlgorithm:Outside,
  DOE-2;

Timestep,
  4;

Version,
  26.1;

WindowMaterial:GasMixture,
  A COUNT1 XENON MIX,
  0.0127,
  1,
  Xenon,
  0.37,
  Air,
  0.63;

WindowMaterial:GasMixture,
  B ORDER AIR ARGON MIX,
  0.0127,
  2,
  Air,
  0.2,
  Argon,
  0.3;

WindowMaterial:GasMixture,
  C ORDER ARGON AIR MIX,
  0.0127,
  2,
  Argon,
  0.3,
  Air,
  0.2;

WindowMaterial:GasMixture,
  D COUNT3 ZERO THIRD MIX,
  0.0127,
  3,
  Air,
  0.4,
  Argon,
  0.6,
  Krypton;

WindowMaterial:GasMixture,
  E COUNT4 DUPLICATE MIX,
  0.0127,
  4,
  Air,
  0.1,
  Argon,
  0.2,
  Air,
  0.3,
  Xenon,
  0.4;

WindowMaterial:GasMixture,
  Z UNUSED KRYPTON XENON MIX,
  0.0159,
  2,
  Krypton,
  0.5,
  Xenon,
  0.5;

WindowMaterial:Glazing,
  DISTINCTIVE GAS TEST GLASS,
  SpectralAverage,
  ,
  0.0064,
  0.612,
  0.137,
  0.149,
  0.721,
  0.109,
  0.123,
  0.021,
  0.823,
  0.786,
  1.17,
  0.93,
  No,
  68000000000.0,
  0.24;

Zone,
  GAS TEST ZONE,
  0,
  0,
  0,
  0,
  1,
  1,
  3,
  48,
  16;
