Version,
  26.1;

SimulationControl,
  No,
  No,
  No,
  No,
  Yes,
  No;

Building,
  Material Roof Vegetation Static EIO,
  0.0,
  Suburbs,
  0.04,
  0.4,
  FullExterior,
  25,
  6;

Site:Location,
  Golden,
  39.74,
  -105.18,
  -7.0,
  1829.0;

RunPeriod,
  Run Period 1,
  1,
  1,
  2013,
  1,
  1,
  2013,
  Tuesday,
  Yes,
  Yes,
  No,
  Yes,
  Yes;

Timestep,
  60;

HeatBalanceAlgorithm,
  ConductionTransferFunction;

SurfaceConvectionAlgorithm:Inside,
  TARP;

SurfaceConvectionAlgorithm:Outside,
  DOE-2;

Site:GroundTemperature:BuildingSurface,
  18,
  18,
  18,
  18,
  18,
  18,
  18,
  18,
  18,
  18,
  18,
  18;

GlobalGeometryRules,
  UpperLeftCorner,
  Counterclockwise,
  World;

Zone,
  ROOF VEGETATION TEST ZONE,
  0,
  0,
  0,
  0,
  1,
  1,
  3,
  48,
  16;

Material,
  DISTINCTIVE OPAQUE HOST MATERIAL,
  Rough,
  0.113,
  0.347,
  913.0,
  836.0,
  0.87,
  0.63,
  0.58;

Material:RoofVegetation,
  Z USED EXPLICIT ROOF VEGETATION,
  0.5,
  5.0,
  0.2,
  0.95,
  180.0,
  EXPLICIT SOIL LABEL,
  MediumSmooth,
  0.18,
  0.4,
  641.0,
  1100.0,
  0.95,
  0.8,
  0.7,
  0.4,
  0.01,
  0.2,
  Advanced;

Material:RoofVegetation,
  M DEFAULTED UNUSED ROOF VEGETATION,
  ,
  ,
  ,
  ,
  ,
  ,
  ,
  ,
  ,
  ,
  ,
  ,
  ,
  ,
  ,
  ,
  ,
  ;

Material:RoofVegetation,
  A UNUSED EXPLICIT ROOF VEGETATION,
  0.5,
  5.0,
  0.2,
  0.95,
  180.0,
  UNUSED SOIL LABEL,
  MediumSmooth,
  0.36,
  0.4,
  641.0,
  1100.0,
  0.95,
  0.8,
  0.7,
  0.4,
  0.01,
  0.2,
  Simple;

Construction,
  A OPAQUE HOST CONSTRUCTION,
  DISTINCTIVE OPAQUE HOST MATERIAL;

Construction,
  B ROOF VEGETATION CONSTRUCTION,
  Z USED EXPLICIT ROOF VEGETATION,
  DISTINCTIVE OPAQUE HOST MATERIAL;

BuildingSurface:Detailed,
  ROOF VEGETATION SOUTH WALL,
  Wall,
  A OPAQUE HOST CONSTRUCTION,
  ROOF VEGETATION TEST ZONE,
  ,
  Outdoors,
  ,
  SunExposed,
  WindExposed,
  0.5,
  4,
  0.0,
  0.0,
  3.0,
  0.0,
  0.0,
  0.0,
  4.0,
  0.0,
  0.0,
  4.0,
  0.0,
  3.0;

BuildingSurface:Detailed,
  ROOF VEGETATION EAST WALL,
  Wall,
  A OPAQUE HOST CONSTRUCTION,
  ROOF VEGETATION TEST ZONE,
  ,
  Outdoors,
  ,
  SunExposed,
  WindExposed,
  0.5,
  4,
  4.0,
  0.0,
  3.0,
  4.0,
  0.0,
  0.0,
  4.0,
  4.0,
  0.0,
  4.0,
  4.0,
  3.0;

BuildingSurface:Detailed,
  ROOF VEGETATION FLOOR,
  Floor,
  A OPAQUE HOST CONSTRUCTION,
  ROOF VEGETATION TEST ZONE,
  ,
  Ground,
  ,
  NoSun,
  NoWind,
  1.0,
  4,
  4.0,
  4.0,
  0.0,
  4.0,
  0.0,
  0.0,
  0.0,
  0.0,
  0.0,
  0.0,
  4.0,
  0.0;

BuildingSurface:Detailed,
  ROOF VEGETATION NORTH WALL,
  Wall,
  A OPAQUE HOST CONSTRUCTION,
  ROOF VEGETATION TEST ZONE,
  ,
  Outdoors,
  ,
  SunExposed,
  WindExposed,
  0.5,
  4,
  4.0,
  4.0,
  3.0,
  4.0,
  4.0,
  0.0,
  0.0,
  4.0,
  0.0,
  0.0,
  4.0,
  3.0;

BuildingSurface:Detailed,
  ROOF VEGETATION ROOF,
  Roof,
  B ROOF VEGETATION CONSTRUCTION,
  ROOF VEGETATION TEST ZONE,
  ,
  Outdoors,
  ,
  SunExposed,
  WindExposed,
  0.0,
  4,
  0.0,
  4.0,
  3.0,
  0.0,
  0.0,
  3.0,
  4.0,
  0.0,
  3.0,
  4.0,
  4.0,
  3.0;

BuildingSurface:Detailed,
  ROOF VEGETATION WEST WALL,
  Wall,
  A OPAQUE HOST CONSTRUCTION,
  ROOF VEGETATION TEST ZONE,
  ,
  Outdoors,
  ,
  SunExposed,
  WindExposed,
  0.5,
  4,
  0.0,
  4.0,
  3.0,
  0.0,
  4.0,
  0.0,
  0.0,
  0.0,
  0.0,
  0.0,
  0.0,
  3.0;

Output:Constructions,Constructions,Materials;

Output:Variable,
  *,
  Zone Mean Air Temperature,
  Hourly;
